LAMMPS input file for a BOX simulation to test induced gene movement in a small shoe box.

1290 atoms
368 bonds
366 angles

11 atom types
2 bond types
2 angle types

-13.0 13.0 xlo xhi
-9.5 9.5 ylo yhi
-7.0 7.0 zlo zhi

Masses

1 1
2 1
3 1
4 1
5 1
6 1
7 1
8 1
9 1
10 1
11 1

Atoms

1 1 1 -11 -3.75 0 0 0 0
2 1 1 -11 -3.6885245901639343 0 0 0 0
3 1 1 -11 -3.627049180327869 0 0 0 0
4 1 1 -11 -3.5655737704918034 0 0 0 0
5 1 1 -11 -3.5040983606557377 0 0 0 0
6 1 1 -11 -3.442622950819672 0 0 0 0
7 1 1 -11 -3.3811475409836067 0 0 0 0
8 1 1 -11 -3.319672131147541 0 0 0 0
9 1 1 -11 -3.2581967213114753 0 0 0 0
10 1 1 -11 -3.19672131147541 0 0 0 0
11 1 1 -11 -3.1352459016393444 0 0 0 0
12 1 1 -11 -3.0737704918032787 0 0 0 0
13 1 1 -11 -3.0122950819672134 0 0 0 0
14 1 1 -11 -2.9508196721311477 0 0 0 0
15 1 1 -11 -2.889344262295082 0 0 0 0
16 1 1 -11 -2.8278688524590163 0 0 0 0
17 1 1 -11 -2.7663934426229506 0 0 0 0
18 1 1 -11 -2.7049180327868854 0 0 0 0
19 1 1 -11 -2.6434426229508197 0 0 0 0
20 1 1 -11 -2.581967213114754 0 0 0 0
21 1 1 -11 -2.5204918032786887 0 0 0 0
22 1 1 -11 -2.459016393442623 0 0 0 0
23 1 1 -11 -2.3975409836065573 0 0 0 0
24 1 1 -11 -2.336065573770492 0 0 0 0
25 1 1 -11 -2.2745901639344264 0 0 0 0
26 1 1 -11 -2.2131147540983607 0 0 0 0
27 1 1 -11 -2.1516393442622954 0 0 0 0
28 1 1 -11 -2.0901639344262293 0 0 0 0
29 1 1 -11 -2.028688524590164 0 0 0 0
30 1 1 -11 -1.9672131147540983 0 0 0 0
31 1 1 -11 -1.9057377049180328 0 0 0 0
32 1 1 -11 -1.8442622950819672 0 0 0 0
33 1 1 -11 -1.7827868852459017 0 0 0 0
34 1 1 -11 -1.721311475409836 0 0 0 0
35 1 1 -11 -1.6598360655737707 0 0 0 0
36 1 1 -11 -1.598360655737705 0 0 0 0
37 1 1 -11 -1.5368852459016393 0 0 0 0
38 1 9 -11 -1.4754098360655736 0 0 0 0
39 1 9 -11 -1.4139344262295084 0 0 0 0
40 1 9 -11 -1.3524590163934427 0 0 0 0
41 1 9 -11 -1.290983606557377 0 0 0 0
42 1 9 -11 -1.2295081967213117 0 0 0 0
43 1 9 -11 -1.168032786885246 0 0 0 0
44 1 9 -11 -1.1065573770491803 0 0 0 0
45 1 9 -11 -1.0450819672131146 0 0 0 0
46 1 9 -11 -0.9836065573770494 0 0 0 0
47 1 9 -11 -0.9221311475409837 0 0 0 0
48 1 9 -11 -0.860655737704918 0 0 0 0
49 1 9 -11 -0.7991803278688527 0 0 0 0
50 1 9 -11 -0.737704918032787 0 0 0 0
51 1 9 -11 -0.6762295081967213 0 0 0 0
52 1 9 -11 -0.6147540983606556 0 0 0 0
53 1 9 -11 -0.5532786885245904 0 0 0 0
54 1 9 -11 -0.4918032786885247 0 0 0 0
55 1 9 -11 -0.430327868852459 0 0 0 0
56 1 9 -11 -0.3688524590163933 0 0 0 0
57 1 9 -11 -0.30737704918032804 0 0 0 0
58 1 9 -11 -0.24590163934426235 0 0 0 0
59 1 9 -11 -0.18442622950819665 0 0 0 0
60 1 9 -11 -0.1229508196721314 0 0 0 0
61 1 9 -11 -0.0614754098360657 0 0 0 0
62 1 9 -11 0.0 0 0 0 0
63 1 9 -11 0.0614754098360657 0 0 0 0
64 1 9 -11 0.12295081967213095 0 0 0 0
65 1 9 -11 0.18442622950819665 0 0 0 0
66 1 9 -11 0.24590163934426235 0 0 0 0
67 1 9 -11 0.30737704918032804 0 0 0 0
68 1 9 -11 0.3688524590163933 0 0 0 0
69 1 9 -11 0.43032786885245855 0 0 0 0
70 1 9 -11 0.4918032786885247 0 0 0 0
71 1 9 -11 0.55327868852459 0 0 0 0
72 1 9 -11 0.6147540983606561 0 0 0 0
73 1 9 -11 0.6762295081967213 0 0 0 0
74 1 9 -11 0.7377049180327866 0 0 0 0
75 1 9 -11 0.7991803278688527 0 0 0 0
76 1 9 -11 0.860655737704918 0 0 0 0
77 1 9 -11 0.9221311475409832 0 0 0 0
78 1 9 -11 0.9836065573770494 0 0 0 0
79 1 9 -11 1.0450819672131146 0 0 0 0
80 1 9 -11 1.10655737704918 0 0 0 0
81 1 9 -11 1.168032786885246 0 0 0 0
82 1 9 -11 1.2295081967213113 0 0 0 0
83 1 9 -11 1.2909836065573765 0 0 0 0
84 1 9 -11 1.3524590163934427 0 0 0 0
85 1 9 -11 1.413934426229508 0 0 0 0
86 1 9 -11 1.475409836065574 0 0 0 0
87 1 9 -11 1.5368852459016393 0 0 0 0
88 1 1 -11 1.5983606557377046 0 0 0 0
89 1 1 -11 1.6598360655737707 0 0 0 0
90 1 1 -11 1.721311475409836 0 0 0 0
91 1 1 -11 1.7827868852459012 0 0 0 0
92 1 1 -11 1.8442622950819674 0 0 0 0
93 1 1 -11 1.9057377049180326 0 0 0 0
94 1 1 -11 1.9672131147540979 0 0 0 0
95 1 1 -11 2.028688524590164 0 0 0 0
96 1 1 -11 2.0901639344262293 0 0 0 0
97 1 1 -11 2.1516393442622945 0 0 0 0
98 1 1 -11 2.2131147540983607 0 0 0 0
99 1 1 -11 2.274590163934426 0 0 0 0
100 1 1 -11 2.336065573770492 0 0 0 0
101 1 1 -11 2.3975409836065573 0 0 0 0
102 1 1 -11 2.4590163934426226 0 0 0 0
103 1 1 -11 2.5204918032786887 0 0 0 0
104 1 1 -11 2.581967213114754 0 0 0 0
105 1 1 -11 2.643442622950819 0 0 0 0
106 1 1 -11 2.7049180327868854 0 0 0 0
107 1 1 -11 2.7663934426229506 0 0 0 0
108 1 1 -11 2.827868852459016 0 0 0 0
109 1 1 -11 2.889344262295082 0 0 0 0
110 1 1 -11 2.9508196721311473 0 0 0 0
111 1 1 -11 3.0122950819672134 0 0 0 0
112 1 1 -11 3.0737704918032787 0 0 0 0
113 1 1 -11 3.135245901639344 0 0 0 0
114 1 1 -11 3.19672131147541 0 0 0 0
115 1 1 -11 3.2581967213114753 0 0 0 0
116 1 1 -11 3.3196721311475406 0 0 0 0
117 1 1 -11 3.3811475409836067 0 0 0 0
118 1 1 -11 3.442622950819672 0 0 0 0
119 1 1 -11 3.504098360655737 0 0 0 0
120 1 1 -11 3.5655737704918034 0 0 0 0
121 1 1 -11 3.6270491803278686 0 0 0 0
122 1 1 -11 3.688524590163934 0 0 0 0
123 1 1 -11 3.75 0 0 0 0
124 2 1 11 -3.75 0 0 0 0
125 2 1 11 -3.7195121951219514 0 0 0 0
126 2 1 11 -3.6890243902439024 0 0 0 0
127 2 1 11 -3.658536585365854 0 0 0 0
128 2 1 11 -3.6280487804878048 0 0 0 0
129 2 1 11 -3.597560975609756 0 0 0 0
130 2 1 11 -3.567073170731707 0 0 0 0
131 2 1 11 -3.5365853658536586 0 0 0 0
132 2 1 11 -3.5060975609756095 0 0 0 0
133 2 1 11 -3.475609756097561 0 0 0 0
134 2 1 11 -3.4451219512195124 0 0 0 0
135 2 1 11 -3.4146341463414633 0 0 0 0
136 2 1 11 -3.3841463414634148 0 0 0 0
137 2 1 11 -3.3536585365853657 0 0 0 0
138 2 1 11 -3.323170731707317 0 0 0 0
139 2 1 11 -3.2926829268292686 0 0 0 0
140 2 1 11 -3.2621951219512195 0 0 0 0
141 2 1 11 -3.2317073170731705 0 0 0 0
142 2 1 11 -3.201219512195122 0 0 0 0
143 2 1 11 -3.1707317073170733 0 0 0 0
144 2 1 11 -3.1402439024390243 0 0 0 0
145 2 1 11 -3.1097560975609757 0 0 0 0
146 2 1 11 -3.0792682926829267 0 0 0 0
147 2 1 11 -3.048780487804878 0 0 0 0
148 2 1 11 -3.0182926829268295 0 0 0 0
149 2 1 11 -2.9878048780487805 0 0 0 0
150 2 1 11 -2.9573170731707314 0 0 0 0
151 2 1 11 -2.926829268292683 0 0 0 0
152 2 1 11 -2.8963414634146343 0 0 0 0
153 2 1 11 -2.8658536585365852 0 0 0 0
154 2 1 11 -2.8353658536585367 0 0 0 0
155 2 1 11 -2.8048780487804876 0 0 0 0
156 2 1 11 -2.774390243902439 0 0 0 0
157 2 1 11 -2.7439024390243905 0 0 0 0
158 2 1 11 -2.7134146341463414 0 0 0 0
159 2 1 11 -2.6829268292682924 0 0 0 0
160 2 1 11 -2.652439024390244 0 0 0 0
161 2 1 11 -2.6219512195121952 0 0 0 0
162 2 1 11 -2.5914634146341466 0 0 0 0
163 2 1 11 -2.5609756097560976 0 0 0 0
164 2 1 11 -2.5304878048780486 0 0 0 0
165 2 1 11 -2.5 0 0 0 0
166 2 1 11 -2.4695121951219514 0 0 0 0
167 2 1 11 -2.4390243902439024 0 0 0 0
168 2 1 11 -2.408536585365854 0 0 0 0
169 2 1 11 -2.3780487804878048 0 0 0 0
170 2 1 11 -2.347560975609756 0 0 0 0
171 2 1 11 -2.3170731707317076 0 0 0 0
172 2 1 11 -2.2865853658536586 0 0 0 0
173 2 1 11 -2.2560975609756095 0 0 0 0
174 2 1 11 -2.225609756097561 0 0 0 0
175 2 1 11 -2.1951219512195124 0 0 0 0
176 2 1 11 -2.1646341463414633 0 0 0 0
177 2 1 11 -2.1341463414634148 0 0 0 0
178 2 1 11 -2.1036585365853657 0 0 0 0
179 2 1 11 -2.073170731707317 0 0 0 0
180 2 1 11 -2.0426829268292686 0 0 0 0
181 2 1 11 -2.0121951219512195 0 0 0 0
182 2 1 11 -1.9817073170731707 0 0 0 0
183 2 1 11 -1.951219512195122 0 0 0 0
184 2 1 11 -1.9207317073170733 0 0 0 0
185 2 1 11 -1.8902439024390245 0 0 0 0
186 2 1 11 -1.8597560975609757 0 0 0 0
187 2 1 11 -1.829268292682927 0 0 0 0
188 2 1 11 -1.798780487804878 0 0 0 0
189 2 1 11 -1.7682926829268293 0 0 0 0
190 2 1 11 -1.7378048780487805 0 0 0 0
191 2 1 11 -1.707317073170732 0 0 0 0
192 2 1 11 -1.6768292682926829 0 0 0 0
193 2 1 11 -1.6463414634146343 0 0 0 0
194 2 1 11 -1.6158536585365852 0 0 0 0
195 2 1 11 -1.5853658536585367 0 0 0 0
196 2 1 11 -1.5548780487804876 0 0 0 0
197 2 1 11 -1.524390243902439 0 0 0 0
198 2 1 11 -1.4939024390243905 0 0 0 0
199 2 1 11 -1.4634146341463414 0 0 0 0
200 2 1 11 -1.4329268292682928 0 0 0 0
201 2 1 11 -1.4024390243902438 0 0 0 0
202 2 1 11 -1.3719512195121952 0 0 0 0
203 2 1 11 -1.3414634146341462 0 0 0 0
204 2 1 11 -1.3109756097560976 0 0 0 0
205 2 1 11 -1.280487804878049 0 0 0 0
206 2 1 11 -1.25 0 0 0 0
207 2 1 11 -1.2195121951219514 0 0 0 0
208 2 1 11 -1.1890243902439024 0 0 0 0
209 2 1 11 -1.1585365853658538 0 0 0 0
210 2 1 11 -1.1280487804878048 0 0 0 0
211 2 1 11 -1.0975609756097562 0 0 0 0
212 2 1 11 -1.0670731707317076 0 0 0 0
213 2 1 11 -1.0365853658536586 0 0 0 0
214 2 1 11 -1.00609756097561 0 0 0 0
215 2 1 11 -0.975609756097561 0 0 0 0
216 2 1 11 -0.9451219512195124 0 0 0 0
217 2 1 11 -0.9146341463414633 0 0 0 0
218 2 1 11 -0.8841463414634148 0 0 0 0
219 2 1 11 -0.8536585365853657 0 0 0 0
220 2 1 11 -0.8231707317073171 0 0 0 0
221 2 1 11 -0.7926829268292686 0 0 0 0
222 2 1 11 -0.7621951219512195 0 0 0 0
223 2 1 11 -0.7317073170731709 0 0 0 0
224 2 1 11 -0.7012195121951219 0 0 0 0
225 2 1 11 -0.6707317073170733 0 0 0 0
226 2 1 11 -0.6402439024390243 0 0 0 0
227 2 1 11 -0.6097560975609757 0 0 0 0
228 2 1 11 -0.5792682926829267 0 0 0 0
229 2 1 11 -0.5487804878048781 0 0 0 0
230 2 1 11 -0.5182926829268295 0 0 0 0
231 2 1 11 -0.4878048780487805 0 0 0 0
232 2 1 11 -0.4573170731707319 0 0 0 0
233 2 1 11 -0.42682926829268286 0 0 0 0
234 2 1 11 -0.3963414634146343 0 0 0 0
235 2 1 11 -0.36585365853658525 0 0 0 0
236 2 1 11 -0.33536585365853666 0 0 0 0
237 2 1 11 -0.3048780487804881 0 0 0 0
238 2 1 11 -0.27439024390243905 0 0 0 0
239 2 1 11 -0.24390243902439046 0 0 0 0
240 2 1 11 -0.21341463414634143 0 0 0 0
241 2 1 11 -0.18292682926829285 0 0 0 0
242 2 1 11 -0.15243902439024382 0 0 0 0
243 2 1 11 -0.12195121951219523 0 0 0 0
244 2 1 11 -0.09146341463414664 0 0 0 0
245 2 10 0 -0.060975609756097615 0 0 0 0
246 2 10 0 -0.03048780487804903 0 0 0 0
247 2 2 0 0.0 0 0 0 0
248 2 2 0 0.030487804878048586 0 0 0 0
249 2 2 0 0.060975609756097615 0 0 0 0
250 2 2 0 0.0914634146341462 0 0 0 0
251 2 2 0 0.12195121951219523 0 0 0 0
252 2 1 11 0.15243902439024382 0 0 0 0
253 2 1 11 0.1829268292682924 0 0 0 0
254 2 1 11 0.21341463414634143 0 0 0 0
255 2 1 11 0.24390243902439002 0 0 0 0
256 2 1 11 0.27439024390243905 0 0 0 0
257 2 1 11 0.30487804878048763 0 0 0 0
258 2 1 11 0.3353658536585362 0 0 0 0
259 2 1 11 0.3658536585365857 0 0 0 0
260 2 1 11 0.3963414634146343 0 0 0 0
261 2 1 11 0.42682926829268286 0 0 0 0
262 2 1 11 0.45731707317073145 0 0 0 0
263 2 1 11 0.48780487804878003 0 0 0 0
264 2 1 11 0.5182926829268295 0 0 0 0
265 2 1 11 0.5487804878048781 0 0 0 0
266 2 1 11 0.5792682926829267 0 0 0 0
267 2 1 11 0.6097560975609753 0 0 0 0
268 2 1 11 0.6402439024390247 0 0 0 0
269 2 1 11 0.6707317073170733 0 0 0 0
270 2 1 11 0.7012195121951219 0 0 0 0
271 2 1 11 0.7317073170731705 0 0 0 0
272 2 1 11 0.7621951219512191 0 0 0 0
273 2 1 11 0.7926829268292686 0 0 0 0
274 2 1 11 0.8231707317073171 0 0 0 0
275 2 1 11 0.8536585365853657 0 0 0 0
276 2 1 11 0.8841463414634143 0 0 0 0
277 2 1 11 0.9146341463414629 0 0 0 0
278 2 1 11 0.9451219512195124 0 0 0 0
279 2 1 11 0.975609756097561 0 0 0 0
280 2 1 11 1.0060975609756095 0 0 0 0
281 2 1 11 1.0365853658536581 0 0 0 0
282 2 1 11 1.0670731707317076 0 0 0 0
283 2 1 11 1.0975609756097562 0 0 0 0
284 2 1 11 1.1280487804878048 0 0 0 0
285 2 1 11 1.1585365853658534 0 0 0 0
286 2 1 11 1.189024390243902 0 0 0 0
287 2 1 11 1.2195121951219514 0 0 0 0
288 2 1 11 1.25 0 0 0 0
289 2 1 11 1.2804878048780486 0 0 0 0
290 2 1 11 1.3109756097560972 0 0 0 0
291 2 1 11 1.3414634146341466 0 0 0 0
292 2 1 11 1.3719512195121952 0 0 0 0
293 2 1 11 1.4024390243902438 0 0 0 0
294 2 1 11 1.4329268292682924 0 0 0 0
295 2 1 11 1.463414634146341 0 0 0 0
296 2 1 11 1.4939024390243905 0 0 0 0
297 2 1 11 1.524390243902439 0 0 0 0
298 2 1 11 1.5548780487804876 0 0 0 0
299 2 1 11 1.5853658536585362 0 0 0 0
300 2 1 11 1.6158536585365848 0 0 0 0
301 2 1 11 1.6463414634146343 0 0 0 0
302 2 1 11 1.6768292682926829 0 0 0 0
303 2 1 11 1.7073170731707314 0 0 0 0
304 2 1 11 1.73780487804878 0 0 0 0
305 2 1 11 1.7682926829268295 0 0 0 0
306 2 1 11 1.798780487804878 0 0 0 0
307 2 1 11 1.8292682926829267 0 0 0 0
308 2 1 11 1.8597560975609753 0 0 0 0
309 2 1 11 1.8902439024390238 0 0 0 0
310 2 1 11 1.9207317073170733 0 0 0 0
311 2 1 11 1.951219512195122 0 0 0 0
312 2 1 11 1.9817073170731705 0 0 0 0
313 2 1 11 2.012195121951219 0 0 0 0
314 2 1 11 2.0426829268292686 0 0 0 0
315 2 1 11 2.073170731707317 0 0 0 0
316 2 1 11 2.1036585365853657 0 0 0 0
317 2 1 11 2.1341463414634143 0 0 0 0
318 2 1 11 2.164634146341463 0 0 0 0
319 2 1 11 2.1951219512195124 0 0 0 0
320 2 1 11 2.225609756097561 0 0 0 0
321 2 1 11 2.2560975609756095 0 0 0 0
322 2 1 11 2.286585365853658 0 0 0 0
323 2 1 11 2.3170731707317076 0 0 0 0
324 2 1 11 2.347560975609756 0 0 0 0
325 2 1 11 2.3780487804878048 0 0 0 0
326 2 1 11 2.4085365853658534 0 0 0 0
327 2 1 11 2.439024390243902 0 0 0 0
328 2 1 11 2.4695121951219514 0 0 0 0
329 2 1 11 2.5 0 0 0 0
330 2 1 11 2.5304878048780486 0 0 0 0
331 2 1 11 2.560975609756097 0 0 0 0
332 2 1 11 2.5914634146341466 0 0 0 0
333 2 1 11 2.6219512195121952 0 0 0 0
334 2 1 11 2.652439024390244 0 0 0 0
335 2 1 11 2.6829268292682924 0 0 0 0
336 2 1 11 2.713414634146341 0 0 0 0
337 2 1 11 2.7439024390243905 0 0 0 0
338 2 1 11 2.774390243902439 0 0 0 0
339 2 1 11 2.8048780487804876 0 0 0 0
340 2 1 11 2.835365853658536 0 0 0 0
341 2 1 11 2.865853658536585 0 0 0 0
342 2 1 11 2.8963414634146343 0 0 0 0
343 2 1 11 2.926829268292683 0 0 0 0
344 2 1 11 2.9573170731707314 0 0 0 0
345 2 1 11 2.98780487804878 0 0 0 0
346 2 1 11 3.0182926829268295 0 0 0 0
347 2 1 11 3.048780487804878 0 0 0 0
348 2 1 11 3.0792682926829267 0 0 0 0
349 2 1 11 3.1097560975609753 0 0 0 0
350 2 1 11 3.140243902439024 0 0 0 0
351 2 1 11 3.1707317073170733 0 0 0 0
352 2 1 11 3.201219512195122 0 0 0 0
353 2 1 11 3.2317073170731705 0 0 0 0
354 2 1 11 3.262195121951219 0 0 0 0
355 2 1 11 3.2926829268292686 0 0 0 0
356 2 1 11 3.323170731707317 0 0 0 0
357 2 1 11 3.3536585365853657 0 0 0 0
358 2 1 11 3.3841463414634143 0 0 0 0
359 2 1 11 3.414634146341463 0 0 0 0
360 2 1 11 3.4451219512195124 0 0 0 0
361 2 1 11 3.475609756097561 0 0 0 0
362 2 1 11 3.5060975609756095 0 0 0 0
363 2 1 11 3.536585365853658 0 0 0 0
364 2 1 11 3.5670731707317067 0 0 0 0
365 2 1 11 3.597560975609756 0 0 0 0
366 2 1 11 3.6280487804878048 0 0 0 0
367 2 1 11 3.6585365853658534 0 0 0 0
368 2 1 11 3.689024390243902 0 0 0 0
369 2 1 11 3.7195121951219514 0 0 0 0
370 2 1 11 3.75 0 0 0 0
371 3 4 8.689803 1.13404 1.722293 0 0 0
372 4 4 5.424461 0.78651 -0.683042 0 0 0
373 5 4 6.759449 7.084296 -3.307505 0 0 0
374 6 4 -6.371894 2.512521 2.738825 0 0 0
375 7 4 -2.256081 -5.570337 0.075281 0 0 0
376 8 4 7.043499 5.391533 -2.328607 0 0 0
377 9 4 -5.363734 -1.478896 4.653609 0 0 0
378 10 4 0.927179 6.959312 3.425246 0 0 0
379 11 4 0.71068 5.173941 -3.624444 0 0 0
380 12 4 9.463186 -6.937388 -1.646747 0 0 0
381 13 4 4.292684 1.193566 -3.027031 0 0 0
382 14 4 -0.911274 6.227912 -1.330703 0 0 0
383 15 4 5.908413 -4.981447 -3.409708 0 0 0
384 16 4 9.412474 -6.335521 -0.942241 0 0 0
385 17 4 -7.439632 0.211308 -0.216017 0 0 0
386 18 4 4.679641 2.139704 4.529683 0 0 0
387 19 4 -7.584561 -1.333016 0.746872 0 0 0
388 20 4 9.833435 2.32005 -2.375178 0 0 0
389 21 4 -4.596229 -1.374595 0.077469 0 0 0
390 22 4 -5.948827 -3.663729 0.820167 0 0 0
391 23 4 0.988058 -5.065013 -2.765103 0 0 0
392 24 4 -4.057272 -4.391622 2.335478 0 0 0
393 25 4 -3.048682 -4.238392 3.96239 0 0 0
394 26 4 6.458851 2.754541 1.825824 0 0 0
395 27 4 5.521064 3.880309 1.930733 0 0 0
396 28 4 -4.322772 -1.67193 3.05171 0 0 0
397 29 4 -8.850213 -3.018598 4.878342 0 0 0
398 30 4 -0.279313 5.14333 2.139693 0 0 0
399 31 4 -8.914 2.399439 -2.651758 0 0 0
400 32 4 10.306862 -1.24629 -4.233015 0 0 0
401 33 4 -5.140093 6.665869 1.383719 0 0 0
402 34 4 5.654038 5.75664 -3.022958 0 0 0
403 35 4 7.095127 1.664 -2.89259 0 0 0
404 36 4 10.893736 6.139689 -1.578669 0 0 0
405 37 4 6.304605 -5.842609 -3.692985 0 0 0
406 38 4 -9.250942 2.931376 -0.319859 0 0 0
407 39 4 0.424224 -2.464518 3.241616 0 0 0
408 40 4 9.954001 6.691053 4.089523 0 0 0
409 41 4 -2.65306 -2.541336 1.397001 0 0 0
410 42 4 -9.469884 6.182786 -4.316994 0 0 0
411 43 4 -6.130488 4.218543 2.647719 0 0 0
412 44 4 -2.019413 6.895968 3.649365 0 0 0
413 45 4 2.92449 -3.031104 -0.994044 0 0 0
414 46 4 4.92355 -5.233307 4.901153 0 0 0
415 47 4 2.276623 1.188511 4.688857 0 0 0
416 48 4 -8.24697 1.030242 3.647588 0 0 0
417 49 4 -0.36762 -4.100205 -1.661593 0 0 0
418 50 4 -3.865481 5.975656 -1.350137 0 0 0
419 51 4 8.084019 4.635306 3.449229 0 0 0
420 52 4 9.382517 4.964837 4.594538 0 0 0
421 53 4 2.437001 5.259242 -3.204927 0 0 0
422 54 4 8.422994 -0.834295 4.670115 0 0 0
423 55 4 -1.085774 2.725518 -2.181461 0 0 0
424 56 4 -2.271291 5.96534 -2.473579 0 0 0
425 57 4 -6.022109 3.160769 -4.188244 0 0 0
426 58 4 0.35244 -6.008048 -3.593289 0 0 0
427 59 4 -0.94463 6.146302 -3.851637 0 0 0
428 60 4 2.124866 -5.127466 -1.957727 0 0 0
429 61 4 5.382454 6.999729 0.892449 0 0 0
430 62 4 -9.620497 -6.315321 4.866953 0 0 0
431 63 4 -9.305163 5.544377 0.580893 0 0 0
432 64 4 1.471473 -6.010882 -4.618541 0 0 0
433 65 4 6.468141 -5.428739 -0.087361 0 0 0
434 66 4 8.053937 -5.045625 3.164371 0 0 0
435 67 4 9.467164 4.054902 3.111935 0 0 0
436 68 4 1.385904 -0.124784 1.627405 0 0 0
437 69 4 -5.404613 0.510466 -4.004187 0 0 0
438 70 4 6.529778 3.647195 -2.184053 0 0 0
439 71 4 -2.470512 -0.523868 -1.844951 0 0 0
440 72 4 0.934666 -4.833897 1.997417 0 0 0
441 73 4 0.240651 4.400678 0.776732 0 0 0
442 74 4 -3.456612 5.627265 -2.876411 0 0 0
443 75 4 3.395345 2.804757 -2.123766 0 0 0
444 76 4 2.334789 -4.968283 -3.924379 0 0 0
445 77 4 1.93584 5.080952 0.063997 0 0 0
446 78 4 4.928595 2.442378 4.499636 0 0 0
447 79 4 8.543764 7.424517 3.93274 0 0 0
448 80 4 8.987196 -6.59661 4.112924 0 0 0
449 81 4 2.555211 -7.450076 -4.759287 0 0 0
450 82 4 -9.483233 -1.678489 -3.737747 0 0 0
451 83 4 -5.003095 4.276357 3.798678 0 0 0
452 84 4 -8.149583 7.095156 0.32888 0 0 0
453 85 4 -8.005134 -3.692136 -4.899506 0 0 0
454 86 4 7.432981 0.902208 -1.552122 0 0 0
455 87 4 4.087536 -4.113981 -2.236809 0 0 0
456 88 4 -6.699293 -1.6981 -2.454881 0 0 0
457 89 4 -3.442346 0.048512 1.089933 0 0 0
458 90 4 3.102505 3.690435 -1.344398 0 0 0
459 91 4 5.310156 7.330292 -0.904101 0 0 0
460 92 4 2.712792 2.046541 0.025994 0 0 0
461 93 4 -4.178921 4.121716 1.714764 0 0 0
462 94 4 9.882519 -6.013286 4.300593 0 0 0
463 95 4 -7.860344 -2.603247 2.281344 0 0 0
464 96 4 4.772358 7.05767 -0.531137 0 0 0
465 97 4 1.589088 -1.085632 3.921408 0 0 0
466 98 4 9.709927 -5.399739 1.743362 0 0 0
467 99 4 -9.382715 -7.007183 -0.085899 0 0 0
468 100 4 2.96826 -7.150628 -2.062995 0 0 0
469 101 4 5.474775 -0.989041 3.245782 0 0 0
470 102 4 -9.780487 4.64769 -0.472879 0 0 0
471 103 4 8.590435 3.318549 -1.734464 0 0 0
472 104 4 -10.921011 0.545495 3.368732 0 0 0
473 105 4 -5.319313 2.358041 -4.01473 0 0 0
474 106 4 6.254693 -3.805369 1.147315 0 0 0
475 107 4 -1.098658 6.137182 2.302449 0 0 0
476 108 4 -5.620475 -6.754254 -3.75158 0 0 0
477 109 4 0.427617 0.124275 -1.629748 0 0 0
478 110 4 8.312707 -1.89454 -0.932876 0 0 0
479 111 4 -4.071373 3.927755 3.611481 0 0 0
480 112 4 2.697232 5.429884 -3.646589 0 0 0
481 113 4 -1.785399 0.315255 3.886066 0 0 0
482 114 4 -4.392045 -1.003652 -4.048884 0 0 0
483 115 4 9.737175 0.610809 0.310903 0 0 0
484 116 4 -2.918678 -5.436229 -1.48473 0 0 0
485 117 4 -6.525547 3.84768 1.861732 0 0 0
486 118 4 -9.946275 2.672353 4.961707 0 0 0
487 119 4 7.644822 5.802207 2.716944 0 0 0
488 120 4 4.313127 -1.491567 -1.534097 0 0 0
489 121 4 -1.70057 -5.11578 -0.711319 0 0 0
490 122 4 0.307293 -4.995803 1.162523 0 0 0
491 123 4 -6.560908 1.380089 -3.152079 0 0 0
492 124 4 3.454134 -3.452367 1.258918 0 0 0
493 125 4 -9.075951 3.604086 2.716597 0 0 0
494 126 4 -6.325619 -5.559781 -3.408787 0 0 0
495 127 4 1.659844 6.290794 4.214647 0 0 0
496 128 4 -10.579027 -2.149777 1.520505 0 0 0
497 129 4 0.665485 3.65083 1.565472 0 0 0
498 130 4 -0.301628 -0.804469 -0.318637 0 0 0
499 131 4 -4.336876 3.003233 4.636 0 0 0
500 132 4 4.725383 -7.301632 -3.881586 0 0 0
501 133 4 -3.447373 1.021303 -3.607766 0 0 0
502 134 4 1.969366 -0.75396 1.925374 0 0 0
503 135 4 -0.213819 -2.04198 2.351912 0 0 0
504 136 4 -6.750835 3.065297 -2.889411 0 0 0
505 137 4 -5.347142 0.528642 -0.611621 0 0 0
506 138 4 8.0531 -2.554195 -4.169175 0 0 0
507 139 4 10.601157 -2.65666 0.209114 0 0 0
508 140 4 5.956112 -4.033307 1.450429 0 0 0
509 141 4 -4.304288 -1.875477 4.358408 0 0 0
510 142 4 -1.578306 -3.685796 4.960004 0 0 0
511 143 4 -5.2221 1.620284 4.376865 0 0 0
512 144 4 4.742962 -0.622045 4.143329 0 0 0
513 145 4 9.611274 -4.452457 -4.582899 0 0 0
514 146 4 7.986931 5.749646 -0.073228 0 0 0
515 147 4 3.701354 -2.928665 1.386313 0 0 0
516 148 4 1.685801 -3.60974 -3.250128 0 0 0
517 149 4 -2.317484 0.583796 0.819617 0 0 0
518 150 4 9.546025 -6.272102 -0.579723 0 0 0
519 151 4 -7.365718 2.285606 2.936055 0 0 0
520 152 4 -8.892819 3.790707 2.292725 0 0 0
521 153 4 -1.73546 3.359146 0.851076 0 0 0
522 154 4 4.693172 6.364982 -2.346485 0 0 0
523 155 4 -4.030923 5.535543 -3.283919 0 0 0
524 156 4 9.974707 -1.844792 3.608781 0 0 0
525 157 4 5.641142 4.176392 -3.07634 0 0 0
526 158 4 -6.19349 3.757328 2.25401 0 0 0
527 159 4 9.186129 -2.90693 -2.809649 0 0 0
528 160 4 4.026201 -4.77482 4.625191 0 0 0
529 161 4 10.823719 -4.068893 -3.412272 0 0 0
530 162 4 -5.964034 -0.294405 3.315832 0 0 0
531 163 4 -10.531056 -3.39097 -0.768943 0 0 0
532 164 4 4.370163 -1.42891 3.063507 0 0 0
533 165 4 -2.383895 -2.889003 1.231254 0 0 0
534 166 4 5.918536 0.859864 1.699683 0 0 0
535 167 4 5.386681 -4.15778 -3.980344 0 0 0
536 168 4 -3.899638 -1.16298 4.735146 0 0 0
537 169 4 -0.269546 -6.312045 1.766188 0 0 0
538 170 4 -2.80126 -5.981855 1.574094 0 0 0
539 171 4 -6.053482 5.154654 -2.332627 0 0 0
540 172 4 8.209933 1.268739 4.541991 0 0 0
541 173 4 -9.735129 -6.150862 -0.735283 0 0 0
542 174 4 8.077691 5.35254 0.056368 0 0 0
543 175 4 6.517387 3.492491 -1.657254 0 0 0
544 176 4 -8.852905 -5.48204 -2.942173 0 0 0
545 177 4 -4.757552 -0.508049 1.407375 0 0 0
546 178 4 -10.226718 0.422453 -3.343499 0 0 0
547 179 4 -5.934395 -4.999822 3.196116 0 0 0
548 180 4 -3.705662 -1.658607 0.032562 0 0 0
549 181 4 9.48642 6.800444 2.526214 0 0 0
550 182 4 -0.044048 7.418855 2.081443 0 0 0
551 183 4 -9.229616 3.934777 1.370888 0 0 0
552 184 4 4.373236 -4.414975 -2.606606 0 0 0
553 185 4 3.900379 -6.716004 3.814405 0 0 0
554 186 4 -0.127969 -1.492467 -2.790536 0 0 0
555 187 4 -1.020112 4.084712 -4.4081 0 0 0
556 188 4 10.923824 -2.620423 3.086897 0 0 0
557 189 4 7.530493 -6.898032 2.722423 0 0 0
558 190 4 -9.952971 4.421629 4.788517 0 0 0
559 191 4 -6.144663 -3.271012 -2.640504 0 0 0
560 192 4 7.591676 4.357015 -3.189647 0 0 0
561 193 4 3.128847 -1.996695 -2.73681 0 0 0
562 194 4 7.832129 0.881934 4.10324 0 0 0
563 195 4 6.721847 -6.218965 -4.50183 0 0 0
564 196 4 5.769753 0.248594 -0.960122 0 0 0
565 197 4 1.817465 -7.223193 1.99198 0 0 0
566 198 4 -8.675812 4.092443 -4.60122 0 0 0
567 199 4 -9.840125 -6.324738 -2.191939 0 0 0
568 200 4 2.045457 6.683725 -0.492222 0 0 0
569 201 4 -2.483208 -6.143281 0.737699 0 0 0
570 202 4 9.779376 -1.314671 -3.952477 0 0 0
571 203 4 10.895539 1.678273 -2.417823 0 0 0
572 204 4 -0.346889 -5.490353 -0.872695 0 0 0
573 205 4 7.753106 6.343098 3.08771 0 0 0
574 206 4 -0.997577 0.86495 0.543786 0 0 0
575 207 4 2.280897 0.206811 -2.94496 0 0 0
576 208 4 2.214749 7.251282 2.039246 0 0 0
577 209 4 6.132535 4.164432 -0.95673 0 0 0
578 210 4 -8.148921 -2.069128 -4.36485 0 0 0
579 211 4 -3.784509 7.022414 4.62092 0 0 0
580 212 4 -1.779323 -0.778873 0.995145 0 0 0
581 213 4 -1.017326 -5.720501 4.712529 0 0 0
582 214 4 -6.172101 -5.504329 -3.382679 0 0 0
583 215 4 -1.365793 4.802772 -3.621918 0 0 0
584 216 4 1.302035 -5.97144 2.461387 0 0 0
585 217 4 -4.98971 -3.4137 4.631966 0 0 0
586 218 4 -2.905274 -3.121965 0.266821 0 0 0
587 219 4 5.714339 2.652647 0.693615 0 0 0
588 220 4 0.143381 6.828291 0.911139 0 0 0
589 221 4 -6.953022 -4.082094 -1.32721 0 0 0
590 222 4 5.457137 0.896454 -4.926199 0 0 0
591 223 4 -8.82224 -5.475619 4.940854 0 0 0
592 224 4 -7.317893 -0.220672 -3.427322 0 0 0
593 225 4 -9.85468 5.092141 -0.484728 0 0 0
594 226 4 9.322733 6.574098 2.106441 0 0 0
595 227 4 -10.019137 5.153521 2.667314 0 0 0
596 228 4 5.456626 5.115116 -1.991884 0 0 0
597 229 4 -6.95602 -5.184733 2.783799 0 0 0
598 230 4 4.130838 -5.779018 3.225911 0 0 0
599 231 4 2.116562 7.401648 -0.598004 0 0 0
600 232 4 -9.847712 7.146376 0.984343 0 0 0
601 233 4 1.314983 -0.257078 -2.130939 0 0 0
602 234 4 -10.885692 -2.861611 0.668236 0 0 0
603 235 4 -10.010648 -4.353971 -0.270807 0 0 0
604 236 4 1.697453 -6.863105 3.170189 0 0 0
605 237 4 -2.821667 2.517376 2.630069 0 0 0
606 238 4 8.565787 -6.373243 -1.042292 0 0 0
607 239 4 -2.844164 4.211261 -1.89687 0 0 0
608 240 4 -9.715953 -7.252985 1.184183 0 0 0
609 241 4 5.396106 -2.162123 1.212837 0 0 0
610 242 4 -3.759686 -5.416301 -2.009942 0 0 0
611 243 4 10.820832 2.660147 2.215446 0 0 0
612 244 4 0.087641 -0.288416 -2.062233 0 0 0
613 245 4 -4.169272 -3.923806 -2.152823 0 0 0
614 246 4 -1.904819 -6.452299 -4.022508 0 0 0
615 247 4 -2.569506 0.882641 2.914108 0 0 0
616 248 4 -0.756924 1.409618 4.718957 0 0 0
617 249 4 -6.941091 3.521973 1.014615 0 0 0
618 250 4 -0.128169 1.403045 0.117074 0 0 0
619 251 4 -4.417973 1.526506 -0.745468 0 0 0
620 252 4 -8.979656 -7.394508 -3.169883 0 0 0
621 253 4 -6.047526 3.798672 -0.439852 0 0 0
622 254 4 9.939106 4.590443 0.569827 0 0 0
623 255 4 0.936124 -1.08564 3.439604 0 0 0
624 256 4 4.613979 -7.062689 -0.182234 0 0 0
625 257 4 0.598957 3.529733 -4.507583 0 0 0
626 258 4 7.216971 -5.700602 -2.290281 0 0 0
627 259 4 0.625793 -0.915851 -3.024185 0 0 0
628 260 4 -10.262703 2.038157 3.427578 0 0 0
629 261 4 7.213988 -5.741923 -3.785126 0 0 0
630 262 4 8.484174 4.369711 2.634909 0 0 0
631 263 4 9.951916 0.820911 0.991831 0 0 0
632 264 4 -0.732881 -2.346351 -2.518926 0 0 0
633 265 4 -3.651281 1.198909 -4.890036 0 0 0
634 266 4 -4.587581 4.309277 4.021706 0 0 0
635 267 4 0.263061 -0.092043 -3.994679 0 0 0
636 268 4 -7.152345 -0.503506 -2.606148 0 0 0
637 269 4 4.16928 -2.214958 3.855651 0 0 0
638 270 4 8.666213 6.769289 1.082105 0 0 0
639 271 4 4.952977 -6.654635 -2.289014 0 0 0
640 272 4 3.783008 -0.156095 0.771692 0 0 0
641 273 4 -3.851105 4.052066 -3.817919 0 0 0
642 274 4 0.998169 -2.990805 -4.942088 0 0 0
643 275 4 -2.456001 2.938912 -3.155287 0 0 0
644 276 4 -2.976774 -5.937656 -2.044557 0 0 0
645 277 4 0.833593 -6.35447 -2.076442 0 0 0
646 278 4 -2.731073 4.719105 -1.929853 0 0 0
647 279 4 8.086588 -2.335 -2.307333 0 0 0
648 280 4 -2.981089 -0.585503 -2.139689 0 0 0
649 281 4 -6.61839 -0.514038 -0.651852 0 0 0
650 282 4 -9.074782 -2.758383 -3.400055 0 0 0
651 283 4 7.735168 -4.027435 -4.31283 0 0 0
652 284 4 -8.251384 -4.151602 -0.720962 0 0 0
653 285 4 2.430478 -5.735502 0.697218 0 0 0
654 286 4 1.493504 -1.545534 -0.13403 0 0 0
655 287 4 8.980372 -6.941082 -4.80426 0 0 0
656 288 4 -7.033979 -6.431425 -4.696114 0 0 0
657 289 4 -1.49625 -1.495667 2.758292 0 0 0
658 290 4 -0.235288 0.693546 0.926373 0 0 0
659 291 4 -9.393404 -4.351862 -3.591645 0 0 0
660 292 4 1.143645 -5.031427 1.920845 0 0 0
661 293 4 -1.459441 2.934192 -4.614605 0 0 0
662 294 4 8.749141 -5.568797 3.86936 0 0 0
663 295 4 -6.592004 -0.279866 3.697642 0 0 0
664 296 4 -7.505168 -0.493135 0.737466 0 0 0
665 297 4 7.541286 -1.479991 3.360373 0 0 0
666 298 4 9.984364 6.355191 -0.004149 0 0 0
667 299 4 -5.904903 1.337154 -4.223597 0 0 0
668 300 4 -10.129511 0.58955 -4.42489 0 0 0
669 301 4 -10.331622 -6.711412 2.296266 0 0 0
670 302 4 -5.907476 -0.683685 -3.170088 0 0 0
671 303 4 -5.289368 3.755405 -2.935687 0 0 0
672 304 4 -5.139309 0.937642 -0.053696 0 0 0
673 305 4 -3.092088 3.270716 -3.733181 0 0 0
674 306 4 0.960913 0.059532 -4.185932 0 0 0
675 307 4 2.435207 -6.045825 1.99397 0 0 0
676 308 4 10.188545 4.239411 -3.114103 0 0 0
677 309 4 -9.814854 2.708963 -4.360665 0 0 0
678 310 4 2.810187 4.229897 4.793146 0 0 0
679 311 4 -6.239916 0.015693 3.834245 0 0 0
680 312 4 0.902202 4.066355 2.512424 0 0 0
681 313 4 3.082622 3.214804 0.300174 0 0 0
682 314 4 4.108895 -4.906829 -2.298064 0 0 0
683 315 4 5.899294 1.519098 0.734934 0 0 0
684 316 4 9.794464 -2.355779 0.567153 0 0 0
685 317 4 7.05865 -2.201432 4.88436 0 0 0
686 318 4 8.10669 5.599846 -4.351955 0 0 0
687 319 4 4.943826 5.906221 0.654431 0 0 0
688 320 4 -2.068259 2.720296 -4.336393 0 0 0
689 321 4 8.948602 -6.79804 -0.583665 0 0 0
690 322 4 -3.402567 -6.155987 1.072166 0 0 0
691 323 4 10.080762 2.431139 0.445922 0 0 0
692 324 4 -4.538518 1.787749 0.567402 0 0 0
693 325 4 -2.650902 -4.910938 -0.169256 0 0 0
694 326 4 -7.534053 6.210444 4.644987 0 0 0
695 327 4 -2.201121 3.206467 -0.696004 0 0 0
696 328 4 3.710276 -0.265367 3.223877 0 0 0
697 329 4 2.296083 5.780541 0.579286 0 0 0
698 330 4 1.911606 -5.32883 0.984817 0 0 0
699 331 4 0.431871 2.355624 1.169508 0 0 0
700 332 4 7.131724 5.325879 4.088944 0 0 0
701 333 4 -9.04891 7.445784 4.993112 0 0 0
702 334 4 -6.630185 -5.941226 0.568935 0 0 0
703 335 4 3.148414 0.252127 1.062621 0 0 0
704 336 4 7.967301 0.54806 2.133187 0 0 0
705 337 4 -9.320325 1.991935 0.680812 0 0 0
706 338 4 -2.323008 3.912528 2.501335 0 0 0
707 339 4 3.662776 -3.557569 -1.697184 0 0 0
708 340 4 -6.74894 2.543559 2.268903 0 0 0
709 341 4 -3.091328 -0.007519 1.470314 0 0 0
710 342 4 -6.601556 1.608669 3.2564 0 0 0
711 343 4 -8.07275 -3.488393 3.576782 0 0 0
712 344 4 10.884979 1.942694 -2.870849 0 0 0
713 345 4 6.540132 -1.837134 1.912858 0 0 0
714 346 4 3.051478 -5.735901 -3.298264 0 0 0
715 347 4 1.293003 -5.801311 1.72945 0 0 0
716 348 4 10.506088 -6.918329 3.11911 0 0 0
717 349 4 4.685535 2.243565 0.092613 0 0 0
718 350 4 -2.540748 4.856023 -3.911481 0 0 0
719 351 4 -8.630874 3.10545 -3.938736 0 0 0
720 352 4 -0.703635 -0.841962 -3.314802 0 0 0
721 353 4 4.76591 -6.246041 -2.698191 0 0 0
722 354 4 1.108093 -1.375217 4.804769 0 0 0
723 355 4 -1.724144 5.885134 2.557764 0 0 0
724 356 4 -9.117474 0.379223 1.88646 0 0 0
725 357 4 -9.102712 3.978815 -2.433979 0 0 0
726 358 4 3.309232 -0.114307 -1.674741 0 0 0
727 359 4 6.997786 -4.388109 0.132187 0 0 0
728 360 4 -6.98867 -6.937767 0.999749 0 0 0
729 361 4 0.675445 0.471834 -1.371338 0 0 0
730 362 4 0.897509 2.613697 0.593374 0 0 0
731 363 4 -10.106505 -5.939381 -2.220685 0 0 0
732 364 4 2.631154 2.599306 -2.439344 0 0 0
733 365 4 -8.709512 -5.455126 3.050179 0 0 0
734 366 4 0.697315 0.664993 4.526819 0 0 0
735 367 4 -9.359424 -4.609819 3.927066 0 0 0
736 368 4 8.39408 -7.082993 -0.636773 0 0 0
737 369 4 -0.929304 -5.400698 2.892881 0 0 0
738 370 4 -0.229725 7.279947 0.515488 0 0 0
739 371 4 9.512689 1.545062 -0.82088 0 0 0
740 372 4 -0.56184 -7.359052 -2.393144 0 0 0
741 373 4 -5.818271 -4.398262 1.218705 0 0 0
742 374 4 0.186554 -1.622691 2.165137 0 0 0
743 375 4 7.880657 -1.032835 -3.329454 0 0 0
744 376 4 0.465402 -0.304854 4.309001 0 0 0
745 377 4 3.002298 6.259098 -1.564569 0 0 0
746 378 4 -2.675519 2.167695 2.789048 0 0 0
747 379 4 -2.098932 -0.070941 3.788865 0 0 0
748 380 4 -10.956195 0.77362 -4.908481 0 0 0
749 381 4 6.003098 6.314284 3.406041 0 0 0
750 382 4 -9.266882 4.069321 1.860042 0 0 0
751 383 4 -8.209123 0.754164 0.08827 0 0 0
752 384 4 -1.44565 -5.858252 -3.052694 0 0 0
753 385 4 8.104137 -7.009302 -3.630238 0 0 0
754 386 4 -9.841376 -0.505735 -2.408604 0 0 0
755 387 4 6.761239 3.912469 4.754878 0 0 0
756 388 4 -5.028228 -0.174784 4.789102 0 0 0
757 389 4 9.147587 6.67513 -4.874113 0 0 0
758 390 4 -1.688623 -6.496852 3.006486 0 0 0
759 391 4 -0.682309 -6.449241 -1.335155 0 0 0
760 392 4 1.867847 -0.596968 1.591822 0 0 0
761 393 4 4.521413 -2.953146 0.576725 0 0 0
762 394 4 9.45392 5.432195 0.670229 0 0 0
763 395 4 0.412884 3.765964 -2.277667 0 0 0
764 396 4 -0.786666 -6.076963 -3.598699 0 0 0
765 397 4 -9.657898 2.775413 4.948561 0 0 0
766 398 4 -7.638588 -0.72089 0.691076 0 0 0
767 399 4 -0.206581 -7.35841 1.48093 0 0 0
768 400 4 -5.32917 0.418749 3.32965 0 0 0
769 401 4 -8.406748 6.194218 -4.872824 0 0 0
770 402 4 0.758925 5.489297 2.614441 0 0 0
771 403 4 9.791911 5.538114 -1.217953 0 0 0
772 404 4 3.85407 -3.406276 -0.792202 0 0 0
773 405 4 -9.160246 3.327319 0.639042 0 0 0
774 406 4 0.495154 -5.380976 1.785127 0 0 0
775 407 4 -5.366174 -4.282747 -4.936652 0 0 0
776 408 4 10.695244 4.416167 2.961551 0 0 0
777 409 4 0.508773 0.199343 -2.155245 0 0 0
778 410 4 6.76895 1.668035 -2.04394 0 0 0
779 411 4 0.291886 -0.671373 -2.538206 0 0 0
780 412 4 -5.830576 1.898433 -0.049896 0 0 0
781 413 4 -9.473914 -3.73968 -2.173517 0 0 0
782 414 4 -2.524006 -3.542369 2.588683 0 0 0
783 415 4 -7.99192 7.354385 -0.44641 0 0 0
784 416 4 -1.263519 4.535969 4.903311 0 0 0
785 417 4 10.524728 2.20279 0.778945 0 0 0
786 418 4 0.099225 -2.166138 3.310042 0 0 0
787 419 4 10.296135 4.630036 1.013219 0 0 0
788 420 4 -3.614516 -0.487195 2.477148 0 0 0
789 421 4 10.598663 0.92213 -1.418788 0 0 0
790 422 4 -0.525886 -3.533884 4.833708 0 0 0
791 423 4 1.645553 -5.115418 1.360754 0 0 0
792 424 4 -1.236156 2.704644 4.358035 0 0 0
793 425 4 -8.534598 -3.405347 -4.624176 0 0 0
794 426 4 5.022798 -1.784124 -3.743716 0 0 0
795 427 4 -9.683269 5.289474 -4.906135 0 0 0
796 428 4 -4.107124 -1.164419 -0.317133 0 0 0
797 429 4 -7.214568 3.793636 4.543442 0 0 0
798 430 4 5.699996 -6.047955 -0.346847 0 0 0
799 431 4 -2.19055 2.867149 0.717331 0 0 0
800 432 4 -9.418615 -0.026122 -4.976811 0 0 0
801 433 4 5.865337 2.17891 3.861126 0 0 0
802 434 4 2.21928 5.559976 -1.988207 0 0 0
803 435 4 -3.403741 6.392252 0.798146 0 0 0
804 436 4 5.434975 5.106147 -1.505041 0 0 0
805 437 4 0.484661 -2.230882 -4.041563 0 0 0
806 438 4 1.70833 5.344424 -3.910617 0 0 0
807 439 4 -7.88335 3.466661 -2.855157 0 0 0
808 440 4 7.9968 2.702144 -4.027829 0 0 0
809 441 4 8.186209 -6.05261 -2.902925 0 0 0
810 442 4 -6.026768 2.834962 -0.342068 0 0 0
811 443 4 -8.478199 0.027267 -0.517324 0 0 0
812 444 4 -3.590649 0.934064 -0.674852 0 0 0
813 445 4 -5.630398 -6.440759 -3.502383 0 0 0
814 446 4 4.927124 5.224006 -2.894156 0 0 0
815 447 4 0.240094 6.334963 0.742247 0 0 0
816 448 4 0.779191 -4.645219 -4.89714 0 0 0
817 449 4 -5.676139 1.15978 0.079757 0 0 0
818 450 4 2.474327 1.51476 -1.765107 0 0 0
819 451 4 -10.604134 1.394857 1.881619 0 0 0
820 452 4 2.714437 -7.046772 -0.274214 0 0 0
821 453 4 -7.951066 3.169393 2.119873 0 0 0
822 454 4 2.4626 0.614625 1.742018 0 0 0
823 455 4 0.168899 -4.063573 -2.848261 0 0 0
824 456 4 -0.977148 3.468695 0.117252 0 0 0
825 457 4 0.527167 4.543954 -3.467019 0 0 0
826 458 4 2.409459 -0.765438 -2.41447 0 0 0
827 459 4 -3.712989 5.944774 -3.736063 0 0 0
828 460 4 4.251127 -5.846735 2.086159 0 0 0
829 461 4 0.162964 3.469485 -2.137663 0 0 0
830 462 4 -10.838937 -5.749469 -3.778019 0 0 0
831 463 4 -6.214151 6.163879 -2.347006 0 0 0
832 464 4 -2.722903 4.913384 -2.500886 0 0 0
833 465 4 8.750333 -0.454088 -2.904506 0 0 0
834 466 4 -9.038984 4.207666 -0.342844 0 0 0
835 467 4 9.784906 1.294363 0.441663 0 0 0
836 468 4 -2.963374 0.769619 3.091143 0 0 0
837 469 4 3.863827 -5.553549 0.031694 0 0 0
838 470 4 -3.754958 -3.179778 -3.112771 0 0 0
839 471 4 -5.781739 1.073035 0.472993 0 0 0
840 472 4 10.062593 -1.204397 -3.229795 0 0 0
841 473 4 5.53692 4.683047 1.173896 0 0 0
842 474 4 6.651809 6.673788 4.065439 0 0 0
843 475 4 0.830284 -7.145051 -1.600788 0 0 0
844 476 4 9.666403 -0.053138 -1.910636 0 0 0
845 477 4 -8.543516 -0.94163 -1.138059 0 0 0
846 478 4 -2.513027 -1.899713 4.445071 0 0 0
847 479 4 2.256354 1.436929 -2.695304 0 0 0
848 480 4 -0.422293 -4.687181 -0.630455 0 0 0
849 481 4 2.474635 -6.111004 2.245564 0 0 0
850 482 4 9.502712 -1.676715 -3.378124 0 0 0
851 483 4 -3.046265 5.692039 3.075974 0 0 0
852 484 4 -7.090231 -0.318578 3.355603 0 0 0
853 485 4 9.065324 -6.652552 -0.493021 0 0 0
854 486 4 5.973335 3.061145 -4.376849 0 0 0
855 487 4 3.824159 -1.184581 4.248504 0 0 0
856 488 4 -9.132304 -4.67253 2.645377 0 0 0
857 489 4 7.598652 0.445866 -1.984266 0 0 0
858 490 4 -8.532992 1.849078 0.521299 0 0 0
859 491 4 -7.005321 -1.69265 -2.511189 0 0 0
860 492 4 6.293729 7.101574 4.793735 0 0 0
861 493 4 1.950032 -6.491826 1.121574 0 0 0
862 494 4 -9.658267 -1.883528 0.79017 0 0 0
863 495 4 -2.993557 3.747101 -4.546487 0 0 0
864 496 4 -7.938191 -6.047484 -2.812892 0 0 0
865 497 4 -3.577169 -2.493104 0.487065 0 0 0
866 498 4 -7.066107 -3.647453 4.076552 0 0 0
867 499 4 -9.006094 -4.489343 -1.076437 0 0 0
868 500 4 9.042774 -4.941975 -1.87752 0 0 0
869 501 4 7.485726 -1.427506 -3.171708 0 0 0
870 502 4 8.924338 5.914312 0.76436 0 0 0
871 503 4 -1.926667 -3.493409 2.052418 0 0 0
872 504 4 8.916921 1.492373 -3.264417 0 0 0
873 505 4 -7.361613 -5.01018 -4.381279 0 0 0
874 506 4 6.388142 3.681204 -2.034241 0 0 0
875 507 4 9.713474 -2.319216 1.201132 0 0 0
876 508 4 -2.730653 -4.720748 4.851243 0 0 0
877 509 4 6.774043 6.982825 3.692982 0 0 0
878 510 4 -2.491526 -7.310792 -3.285094 0 0 0
879 511 4 0.725875 -3.640262 -4.51191 0 0 0
880 512 4 -10.374651 3.333948 -3.110082 0 0 0
881 513 4 -10.404947 -1.72104 -4.149879 0 0 0
882 514 4 -2.519169 2.135705 3.326351 0 0 0
883 515 4 -3.24055 -1.983881 -4.944548 0 0 0
884 516 4 2.660811 -6.122033 -3.827004 0 0 0
885 517 4 3.249997 4.698013 -4.371712 0 0 0
886 518 4 9.759205 4.198449 2.020378 0 0 0
887 519 4 -9.530773 -6.75913 -2.354281 0 0 0
888 520 4 -9.514375 -7.219649 -3.101701 0 0 0
889 521 4 -5.618491 1.677294 4.713473 0 0 0
890 522 4 3.171338 -4.749334 4.271193 0 0 0
891 523 4 -3.500704 -1.872409 -0.852549 0 0 0
892 524 4 2.780471 -6.100586 3.089517 0 0 0
893 525 4 -1.338352 -4.28002 -1.612755 0 0 0
894 526 4 10.640915 6.093186 -4.450243 0 0 0
895 527 4 3.696248 -0.590291 -0.475421 0 0 0
896 528 4 -2.287102 7.345282 4.555756 0 0 0
897 529 4 8.442684 -3.778022 -2.748812 0 0 0
898 530 4 -5.220465 -0.22988 4.329844 0 0 0
899 531 4 0.54103 4.764529 -1.524129 0 0 0
900 532 4 -6.975121 -3.285946 -1.20815 0 0 0
901 533 4 -4.0492 -1.449686 3.616588 0 0 0
902 534 4 -8.632812 4.464624 3.773597 0 0 0
903 535 4 2.104069 -6.623744 2.022299 0 0 0
904 536 4 1.405255 6.067618 4.793282 0 0 0
905 537 4 3.462782 4.833387 -1.488607 0 0 0
906 538 4 -9.169519 1.358681 -1.501827 0 0 0
907 539 4 0.479481 1.277052 -0.678234 0 0 0
908 540 4 -5.969351 0.137456 0.392904 0 0 0
909 541 4 7.23091 7.163909 -3.016321 0 0 0
910 542 4 3.608711 -0.430791 3.650274 0 0 0
911 543 4 10.277623 6.604525 3.692121 0 0 0
912 544 4 -5.850027 -4.843834 0.689325 0 0 0
913 545 4 1.134099 -6.769074 4.96727 0 0 0
914 546 4 9.865406 0.742643 1.867602 0 0 0
915 547 4 3.588346 -6.135252 0.908465 0 0 0
916 548 4 8.514007 1.083951 -3.100304 0 0 0
917 549 4 6.538743 0.548819 -2.062577 0 0 0
918 550 4 -1.177824 -0.345673 2.633786 0 0 0
919 551 4 -9.627719 -3.796708 -2.933357 0 0 0
920 552 4 -10.444196 6.056207 -3.593335 0 0 0
921 553 8 -3.211229 -0.3231 1.936802 0 0 0
922 554 8 -7.724172 -3.236248 3.466919 0 0 0
923 555 8 -9.282256 2.237072 -1.139191 0 0 0
924 556 8 -7.633764 -2.400455 0.004889 0 0 0
925 557 8 -6.978897 2.795898 -4.42259 0 0 0
926 558 8 -8.822425 -2.914376 4.162451 0 0 0
927 559 8 -0.287711 4.932677 -0.653537 0 0 0
928 560 8 -3.369986 7.230099 -2.13842 0 0 0
929 561 8 -5.853085 6.677973 -3.248543 0 0 0
930 562 8 -10.09119 -1.745202 3.929205 0 0 0
931 563 8 -6.561863 -7.193702 -0.396495 0 0 0
932 564 8 -5.927066 -5.947431 0.420313 0 0 0
933 565 8 -3.071528 -0.293982 -0.22898 0 0 0
934 566 8 -5.086465 0.714853 -1.896025 0 0 0
935 567 8 -10.578216 -5.707767 1.246185 0 0 0
936 568 8 -3.865507 4.207078 -1.247364 0 0 0
937 569 8 -2.883618 2.330676 3.340785 0 0 0
938 570 8 -9.059752 7.008197 2.873187 0 0 0
939 571 8 -0.923865 4.841468 -2.192311 0 0 0
940 572 8 -9.14793 -1.973974 0.548631 0 0 0
941 573 8 -4.542456 4.364297 3.550163 0 0 0
942 574 8 -0.594406 -2.839163 1.330811 0 0 0
943 575 8 -7.023753 4.225112 -1.133697 0 0 0
944 576 8 -4.717132 -2.917489 -1.811209 0 0 0
945 577 8 -1.27397 -6.647045 4.1585 0 0 0
946 578 8 -7.607016 -6.124607 0.922108 0 0 0
947 579 8 -1.612559 5.533214 -0.498983 0 0 0
948 580 8 -1.265162 7.013157 2.561139 0 0 0
949 581 8 -6.721616 3.987192 -0.491337 0 0 0
950 582 8 -6.498221 5.35969 -1.01336 0 0 0
951 583 8 -3.450591 -3.283859 1.2726 0 0 0
952 584 8 -0.531609 -2.534253 4.406885 0 0 0
953 585 8 -8.170105 -5.820929 2.486141 0 0 0
954 586 8 -7.650729 2.89964 -2.828613 0 0 0
955 587 8 -2.64177 2.806998 3.446958 0 0 0
956 588 8 -7.646973 -2.054122 -2.720796 0 0 0
957 589 8 -2.051856 6.060224 -3.41062 0 0 0
958 590 8 -5.798437 5.620003 -0.069905 0 0 0
959 591 8 -7.526339 3.550088 -0.357932 0 0 0
960 592 8 -9.138355 -2.775729 4.140885 0 0 0
961 593 8 -10.404918 5.933602 -3.15461 0 0 0
962 594 8 -3.147587 2.869039 -4.137614 0 0 0
963 595 8 -4.745248 -5.280449 -0.29853 0 0 0
964 596 8 -1.071419 5.701103 3.033423 0 0 0
965 597 8 -2.580996 -3.14115 2.345098 0 0 0
966 598 8 -10.934763 1.660749 -3.969513 0 0 0
967 599 8 -6.457122 5.822275 -1.258792 0 0 0
968 600 8 -7.230647 1.714777 -1.444424 0 0 0
969 601 8 -7.900588 -5.342766 -0.175553 0 0 0
970 602 8 -8.648956 -1.557486 -2.098805 0 0 0
971 603 8 -10.641544 -1.229131 3.284254 0 0 0
972 604 8 -3.063696 -4.323967 2.368395 0 0 0
973 605 8 -0.260496 4.155739 1.28698 0 0 0
974 606 8 -5.329704 -1.173887 4.796186 0 0 0
975 607 8 -0.512184 -1.782259 2.593067 0 0 0
976 608 8 -10.076039 6.033838 3.31562 0 0 0
977 609 8 -8.911394 -4.057957 -2.776395 0 0 0
978 610 8 -4.756662 0.558623 -1.274086 0 0 0
979 611 8 -9.083072 0.691869 1.740969 0 0 0
980 612 8 -10.756227 -5.515901 3.382342 0 0 0
981 613 8 -3.22744 -2.762239 -1.742781 0 0 0
982 614 8 -0.606731 -6.014127 2.04101 0 0 0
983 615 8 -0.266286 1.967618 -1.835125 0 0 0
984 616 8 -2.515535 5.26207 -1.068438 0 0 0
985 617 8 -6.623479 -1.484767 -3.95708 0 0 0
986 618 8 -5.276802 1.005422 -2.621675 0 0 0
987 619 8 -8.411381 -5.057267 0.369786 0 0 0
988 620 8 -4.420362 6.698394 0.969755 0 0 0
989 621 8 -9.511671 -2.347327 0.987203 0 0 0
990 622 8 -3.331715 -1.185161 4.842556 0 0 0
991 623 8 -3.883344 0.093881 4.380515 0 0 0
992 624 8 -1.68113 2.794051 -4.051071 0 0 0
993 625 8 -10.098667 0.110073 -2.021645 0 0 0
994 626 8 -2.364296 3.134816 -2.823688 0 0 0
995 627 8 -1.842264 1.615914 -2.63038 0 0 0
996 628 8 -4.724233 4.943239 -2.930466 0 0 0
997 629 8 -7.318958 -2.57444 1.525912 0 0 0
998 630 8 -0.331379 4.852259 3.846096 0 0 0
999 631 8 -10.845664 1.829794 2.790852 0 0 0
1000 632 8 -6.964633 6.042134 1.752611 0 0 0
1001 633 8 -4.336849 -7.390301 -1.852224 0 0 0
1002 634 8 -3.437325 1.777236 -3.188173 0 0 0
1003 635 8 -5.944664 1.613458 4.942346 0 0 0
1004 636 8 -8.407522 -3.352519 2.939724 0 0 0
1005 637 8 -8.526695 -6.860352 4.7648 0 0 0
1006 638 8 -10.627334 1.978415 3.173005 0 0 0
1007 639 8 -9.863333 3.306302 -0.541544 0 0 0
1008 640 8 -0.87305 6.206115 0.908048 0 0 0
1009 641 8 -8.964163 -2.922395 -0.268637 0 0 0
1010 642 8 -2.794349 -2.91866 4.192306 0 0 0
1011 643 8 -3.831596 2.042211 -1.861772 0 0 0
1012 644 8 -5.824756 7.157892 -0.17961 0 0 0
1013 645 8 -3.074253 4.60336 -1.352455 0 0 0
1014 646 8 -0.246717 -5.975339 0.258487 0 0 0
1015 647 8 -9.308895 3.851173 2.018943 0 0 0
1016 648 8 -3.669458 7.130022 3.136353 0 0 0
1017 649 8 -7.506712 6.966437 4.681521 0 0 0
1018 650 8 -7.832342 -2.751806 -0.307256 0 0 0
1019 651 8 -2.635942 2.407011 -2.146383 0 0 0
1020 652 8 -0.688792 7.430282 -2.105082 0 0 0
1021 653 8 -5.56899 4.492214 -4.302845 0 0 0
1022 654 8 -0.696557 6.680356 0.893653 0 0 0
1023 655 8 -3.935153 -2.846636 -3.771171 0 0 0
1024 656 8 -9.004319 -1.614682 -2.759382 0 0 0
1025 657 8 -7.704343 -2.766872 2.76296 0 0 0
1026 658 8 -8.206957 2.634976 -3.190592 0 0 0
1027 659 8 -4.637202 1.078507 1.145059 0 0 0
1028 660 8 -8.005117 -0.439981 -1.305961 0 0 0
1029 661 8 -8.758494 0.417967 1.319701 0 0 0
1030 662 8 -8.564987 3.964246 2.646995 0 0 0
1031 663 8 -9.418893 5.575125 0.933726 0 0 0
1032 664 8 -7.536429 2.990756 -4.432448 0 0 0
1033 665 8 -10.025929 -1.147658 3.024444 0 0 0
1034 666 8 -9.468251 -3.226048 -3.052181 0 0 0
1035 667 8 -4.83343 -5.735299 1.86089 0 0 0
1036 668 8 -2.924472 -4.812195 -4.87196 0 0 0
1037 669 8 -5.238026 7.009495 4.90904 0 0 0
1038 670 8 -9.37371 -0.844927 3.901948 0 0 0
1039 671 8 -4.182921 -0.804764 -4.950791 0 0 0
1040 672 8 -9.879592 -1.565344 -0.819653 0 0 0
1041 673 8 -0.394793 -7.111375 -0.89847 0 0 0
1042 674 8 -7.645211 -4.031084 1.846245 0 0 0
1043 675 8 -9.017629 0.09461 -0.484616 0 0 0
1044 676 8 -2.687256 -7.473085 -2.182795 0 0 0
1045 677 8 -5.412011 4.032986 -4.995444 0 0 0
1046 678 8 -9.371721 2.271416 -4.097331 0 0 0
1047 679 8 -0.666151 6.468392 -0.916136 0 0 0
1048 680 8 -0.738169 -4.517161 -3.942677 0 0 0
1049 681 8 -3.26319 1.967311 -3.686533 0 0 0
1050 682 8 -1.752092 4.841714 2.001181 0 0 0
1051 683 8 -10.087708 3.884002 2.543669 0 0 0
1052 684 8 -8.038649 0.85508 -2.316171 0 0 0
1053 685 8 -8.90542 6.711287 -3.313649 0 0 0
1054 686 8 -2.600081 -7.087225 -3.576671 0 0 0
1055 687 8 -2.675422 -3.030988 1.49294 0 0 0
1056 688 8 -8.067267 6.902862 3.355073 0 0 0
1057 689 8 -8.024845 -1.409135 0.008361 0 0 0
1058 690 8 -8.361202 -2.976664 -3.269159 0 0 0
1059 691 8 -1.911968 -2.657112 -1.319965 0 0 0
1060 692 8 -3.450405 -4.414171 3.36937 0 0 0
1061 693 8 -2.885332 -6.920463 -1.569457 0 0 0
1062 694 8 -9.779763 3.321488 4.73634 0 0 0
1063 695 8 -5.962172 -5.989218 3.43813 0 0 0
1064 696 8 -4.720985 1.1957 0.970139 0 0 0
1065 697 8 -9.496703 0.027032 4.040846 0 0 0
1066 698 8 -1.999196 4.146185 -0.999464 0 0 0
1067 699 8 -4.520933 1.722573 2.005066 0 0 0
1068 700 8 -8.800617 0.649978 4.682422 0 0 0
1069 701 8 -10.256662 -4.089169 -0.131877 0 0 0
1070 702 8 -7.741303 -7.098376 0.66097 0 0 0
1071 703 8 -3.543524 -7.053735 0.677797 0 0 0
1072 704 8 -10.023684 7.155715 3.495783 0 0 0
1073 705 8 -4.104027 3.162564 4.487969 0 0 0
1074 706 8 -0.535674 -7.477311 -0.042499 0 0 0
1075 707 8 -0.36585 5.328578 -0.854754 0 0 0
1076 708 8 -5.830149 -3.1446 -0.340692 0 0 0
1077 709 8 -9.826359 2.474961 4.676513 0 0 0
1078 710 8 -6.277639 3.604568 -3.01869 0 0 0
1079 711 8 -0.469658 -2.562275 0.238548 0 0 0
1080 712 8 -9.9172 5.293351 3.083789 0 0 0
1081 713 8 -2.12409 -3.832143 -4.332088 0 0 0
1082 714 8 -9.924198 -2.942171 -4.646043 0 0 0
1083 715 8 -9.140745 3.157415 0.08364 0 0 0
1084 716 8 -9.009809 -0.907436 1.084455 0 0 0
1085 717 8 -9.860636 6.378769 -0.0373 0 0 0
1086 718 8 -5.532558 -5.051098 -2.80214 0 0 0
1087 719 8 -2.876801 -0.845647 0.074445 0 0 0
1088 720 8 -6.55074 -2.413664 -0.626073 0 0 0
1089 721 8 -1.870145 -7.273668 3.258736 0 0 0
1090 722 8 -5.395704 0.262043 0.311218 0 0 0
1091 723 8 -5.680999 3.322984 -1.713006 0 0 0
1092 724 8 -4.945966 -0.679415 -2.162072 0 0 0
1093 725 8 -0.849357 -3.910273 3.657463 0 0 0
1094 726 8 -3.265492 -1.447585 -0.905524 0 0 0
1095 727 8 -8.61335 2.326111 3.809162 0 0 0
1096 728 8 -1.344114 -1.258664 4.487999 0 0 0
1097 729 8 -7.488616 0.502614 -1.540158 0 0 0
1098 730 8 -3.331406 6.434052 0.802983 0 0 0
1099 731 8 -8.903872 -1.591997 -4.132863 0 0 0
1100 732 8 -9.968406 -1.654061 3.731581 0 0 0
1101 733 8 -3.720367 -4.035056 2.742312 0 0 0
1102 734 8 -2.372287 -6.142319 2.484559 0 0 0
1103 735 8 -1.156804 6.80096 4.196996 0 0 0
1104 736 8 -6.75915 4.490092 -3.454083 0 0 0
1105 737 8 -1.805994 6.329575 1.459857 0 0 0
1106 738 8 -1.810194 -5.922206 -4.040333 0 0 0
1107 739 8 -4.082998 -4.147285 -0.695382 0 0 0
1108 740 8 -1.341542 3.461543 -2.744905 0 0 0
1109 741 8 -7.936672 6.678218 3.627162 0 0 0
1110 742 8 -4.234587 -0.503748 2.319488 0 0 0
1111 743 8 -10.567062 -5.086285 4.211787 0 0 0
1112 744 8 -9.996439 -3.618917 4.989985 0 0 0
1113 745 8 -5.439048 0.53049 -0.610998 0 0 0
1114 746 8 -2.99147 -0.928398 -0.410339 0 0 0
1115 747 8 -8.39668 5.437458 -1.337618 0 0 0
1116 748 8 -0.518311 -5.568937 0.098453 0 0 0
1117 749 8 -3.131433 1.804608 0.431176 0 0 0
1118 750 8 -8.22489 -7.178937 0.246195 0 0 0
1119 751 8 -1.159527 6.803743 -0.607966 0 0 0
1120 752 8 -7.00651 4.768262 -1.06329 0 0 0
1121 753 8 -2.169478 -3.717279 -1.883633 0 0 0
1122 754 8 -6.616727 -2.378519 4.325015 0 0 0
1123 755 8 -4.446014 0.639904 -2.336249 0 0 0
1124 756 8 -8.023013 -6.92685 2.160272 0 0 0
1125 757 8 -6.651173 4.115732 -1.534477 0 0 0
1126 758 8 -1.263722 1.694878 2.734081 0 0 0
1127 759 8 -8.691773 2.421705 -3.888724 0 0 0
1128 760 8 -8.548225 -2.190396 1.06702 0 0 0
1129 761 8 -2.242965 3.927118 -1.597003 0 0 0
1130 762 8 -5.65646 5.919046 -4.128853 0 0 0
1131 763 8 -0.773746 -5.33831 -0.752183 0 0 0
1132 764 8 -1.80925 0.598187 4.703691 0 0 0
1133 765 8 -6.329391 7.47381 3.331831 0 0 0
1134 766 8 -3.984115 3.448345 -4.379385 0 0 0
1135 767 8 -7.847348 0.72857 -2.654305 0 0 0
1136 768 8 -1.960588 4.755233 2.587032 0 0 0
1137 769 8 -10.463871 0.170582 4.98217 0 0 0
1138 770 8 -3.643855 -3.057076 0.67985 0 0 0
1139 771 8 -7.748151 -3.890037 -1.222739 0 0 0
1140 772 8 -7.172933 2.413747 2.397027 0 0 0
1141 773 8 -4.995927 -1.1669 2.470713 0 0 0
1142 774 8 -3.475401 -6.508268 -1.220043 0 0 0
1143 775 8 -5.026655 0.363872 2.152703 0 0 0
1144 776 8 -2.348994 -4.605437 4.651204 0 0 0
1145 777 8 -3.197441 2.78237 3.847341 0 0 0
1146 778 8 -6.919522 -1.099222 2.440068 0 0 0
1147 779 8 -8.12304 7.289315 -2.037667 0 0 0
1148 780 8 -2.139505 -2.215062 3.443957 0 0 0
1149 781 8 -10.97399 -6.77044 -2.203846 0 0 0
1150 782 8 -2.000987 6.638816 4.504842 0 0 0
1151 783 8 -2.85247 0.478416 1.357749 0 0 0
1152 784 8 -9.581355 -6.587873 -0.232631 0 0 0
1153 785 8 -7.325622 2.938824 1.98631 0 0 0
1154 786 8 -2.649367 -5.566638 1.842862 0 0 0
1155 787 8 -0.464861 -5.79419 -3.623536 0 0 0
1156 788 8 -5.745545 -5.913971 4.952696 0 0 0
1157 789 8 -2.976026 -3.324084 1.771756 0 0 0
1158 790 8 -1.069197 -1.461792 -1.294772 0 0 0
1159 791 8 -9.100245 -0.063112 3.168625 0 0 0
1160 792 8 -3.610408 0.541451 -2.393631 0 0 0
1161 793 8 -8.39517 3.824588 -2.145834 0 0 0
1162 794 8 -6.898534 -6.600857 0.139188 0 0 0
1163 795 8 -1.81874 0.472429 -0.870084 0 0 0
1164 796 8 -4.143439 4.998881 1.680688 0 0 0
1165 797 8 -1.715383 1.606787 -3.856865 0 0 0
1166 798 8 -10.722027 0.672156 2.477013 0 0 0
1167 799 8 -2.93649 3.552961 -3.513581 0 0 0
1168 800 8 -3.520164 5.588259 2.215596 0 0 0
1169 801 8 -8.279072 2.930601 1.719261 0 0 0
1170 802 8 -9.134938 -6.910348 4.054357 0 0 0
1171 803 8 -10.971042 3.399358 -1.092481 0 0 0
1172 804 8 -9.91562 -5.504988 -0.343474 0 0 0
1173 805 8 -4.655284 -2.086863 1.52773 0 0 0
1174 806 8 -3.787563 -2.059692 3.393151 0 0 0
1175 807 8 -5.109809 5.568464 4.413435 0 0 0
1176 808 8 -4.789611 6.581364 2.146428 0 0 0
1177 809 8 -8.005986 -5.263559 1.467142 0 0 0
1178 810 8 -1.188782 6.65922 0.648323 0 0 0
1179 811 8 -1.996753 4.09592 3.445719 0 0 0
1180 812 8 -8.609535 1.820469 -4.479281 0 0 0
1181 813 8 -2.963004 5.314308 2.176861 0 0 0
1182 814 8 -10.133622 1.888249 1.972953 0 0 0
1183 815 8 -4.114883 -5.913721 2.530931 0 0 0
1184 816 8 -2.482077 -2.466626 1.355562 0 0 0
1185 817 8 -0.999326 2.306341 1.604833 0 0 0
1186 818 8 -5.716626 -3.474242 -4.539083 0 0 0
1187 819 8 -8.731048 -1.226906 4.990334 0 0 0
1188 820 8 -10.714224 2.082975 0.578151 0 0 0
1189 821 8 -3.31643 3.320057 2.277912 0 0 0
1190 822 8 -2.821275 7.306271 4.884807 0 0 0
1191 823 8 -9.51678 -2.405366 -0.41787 0 0 0
1192 824 8 -5.467927 -6.482293 -3.316319 0 0 0
1193 825 8 -9.563916 1.976508 -1.33283 0 0 0
1194 826 8 -2.974285 -4.324913 4.44256 0 0 0
1195 827 8 -2.668414 -4.576669 -4.276516 0 0 0
1196 828 8 -10.509585 -6.099411 -4.963935 0 0 0
1197 829 8 -4.590015 7.435777 1.28831 0 0 0
1198 830 8 -2.21729 3.399556 -0.10473 0 0 0
1199 831 8 -4.423843 -1.876795 -3.12572 0 0 0
1200 832 8 -6.041311 3.625185 -0.862126 0 0 0
1201 833 8 -7.310493 -2.731621 -0.227704 0 0 0
1202 834 8 -10.665079 -4.427709 0.607874 0 0 0
1203 835 8 -2.800554 -0.594762 4.289383 0 0 0
1204 836 8 -5.278748 -7.083947 -1.201464 0 0 0
1205 837 8 -6.1314 6.571448 -0.788582 0 0 0
1206 838 8 -10.502774 1.164077 -3.999791 0 0 0
1207 839 8 -2.577471 0.201037 3.991189 0 0 0
1208 840 8 -5.8944 -2.569022 2.541261 0 0 0
1209 841 8 -0.846195 2.563411 2.349742 0 0 0
1210 842 8 -10.011592 4.755666 2.209473 0 0 0
1211 843 8 -4.685156 -2.97519 3.75234 0 0 0
1212 844 8 -1.710096 1.900947 -0.908008 0 0 0
1213 845 8 -4.437255 4.83685 -0.325564 0 0 0
1214 846 8 -6.330705 -2.738692 4.360775 0 0 0
1215 847 8 -5.271498 -1.418721 -3.969143 0 0 0
1216 848 8 -9.730656 0.534408 4.15568 0 0 0
1217 849 8 -9.191614 0.074231 0.111504 0 0 0
1218 850 8 -8.589518 -2.383766 -2.778946 0 0 0
1219 851 8 -3.935259 2.927632 1.208272 0 0 0
1220 852 8 -3.726616 -1.282614 1.997784 0 0 0
1221 853 8 -5.364405 1.227507 4.372457 0 0 0
1222 854 8 -0.919238 -1.282818 2.643058 0 0 0
1223 855 8 -3.863871 2.153172 1.133827 0 0 0
1224 856 8 -2.817475 6.86922 -1.496674 0 0 0
1225 857 8 -6.410435 -3.35211 -3.325345 0 0 0
1226 858 8 -0.503727 -2.663382 -1.780722 0 0 0
1227 859 8 -6.686622 1.230508 3.826661 0 0 0
1228 860 8 -8.187565 5.21027 0.522617 0 0 0
1229 861 8 -4.979742 5.116656 -2.323306 0 0 0
1230 862 8 -5.619461 6.284769 3.372113 0 0 0
1231 863 8 -5.923605 3.13395 3.728504 0 0 0
1232 864 8 -2.349932 -4.764277 4.123653 0 0 0
1233 865 8 -2.188276 3.57935 -1.193639 0 0 0
1234 866 8 -8.601171 5.179861 -2.712028 0 0 0
1235 867 8 -0.684736 -5.909305 0.956491 0 0 0
1236 868 8 -5.179477 1.871026 2.528301 0 0 0
1237 869 8 -8.169042 -3.770027 3.363335 0 0 0
1238 870 8 -10.998205 4.921446 4.404174 0 0 0
1239 871 8 -2.679669 -4.656595 -1.412042 0 0 0
1240 872 8 -5.186954 -5.813346 -1.639414 0 0 0
1241 873 8 -1.600695 1.955034 -2.619593 0 0 0
1242 874 8 -5.786462 4.677227 1.666679 0 0 0
1243 875 8 -8.255294 -7.106709 4.195514 0 0 0
1244 876 8 -9.161316 5.203901 4.20346 0 0 0
1245 877 8 -10.280493 -6.009386 0.299876 0 0 0
1246 878 8 -10.370335 1.302019 0.613641 0 0 0
1247 879 8 -1.434716 2.052426 -2.464092 0 0 0
1248 880 8 -4.491531 6.997582 1.738476 0 0 0
1249 881 8 -8.010709 -5.431382 3.752969 0 0 0
1250 882 8 -9.974422 -3.794892 -3.684016 0 0 0
1251 883 8 -4.418027 1.027553 -1.949644 0 0 0
1252 884 8 -7.237105 2.73969 -2.02182 0 0 0
1253 885 8 -10.048813 3.254981 -0.119025 0 0 0
1254 886 8 -10.051282 -2.825582 3.255382 0 0 0
1255 887 8 -3.81056 -6.264632 3.278827 0 0 0
1256 888 8 -10.414317 -4.686232 -3.000642 0 0 0
1257 889 8 -8.240196 -6.363235 -1.581701 0 0 0
1258 890 8 -7.43394 6.80238 4.797226 0 0 0
1259 891 8 -1.863018 -4.10434 3.56055 0 0 0
1260 892 8 -1.062013 3.017283 -0.911132 0 0 0
1261 893 8 -4.726345 7.137343 1.639642 0 0 0
1262 894 8 -3.277437 0.480343 -2.539428 0 0 0
1263 895 8 -7.873305 4.836419 0.059855 0 0 0
1264 896 8 -4.614443 -0.973549 1.414838 0 0 0
1265 897 8 -4.579515 3.29372 -4.948134 0 0 0
1266 898 8 -7.210644 -4.328058 4.807944 0 0 0
1267 899 8 -9.50366 -0.185587 -3.184258 0 0 0
1268 900 8 -10.143485 0.481541 -2.806995 0 0 0
1269 901 8 -6.417483 -0.144207 1.152656 0 0 0
1270 902 8 -3.114119 2.687311 3.226636 0 0 0
1271 903 8 -3.665696 2.838079 -0.98781 0 0 0
1272 904 8 -0.972717 5.493056 -1.53802 0 0 0
1273 905 8 -9.786128 0.80418 -3.63824 0 0 0
1274 906 8 -2.328938 -2.122357 2.718328 0 0 0
1275 907 8 -3.627743 4.047423 -0.01269 0 0 0
1276 908 8 -3.324201 0.249476 3.177297 0 0 0
1277 909 8 -7.441062 3.507256 4.094311 0 0 0
1278 910 8 -10.874717 -2.021022 2.069555 0 0 0
1279 911 8 -8.14517 0.805832 -2.313807 0 0 0
1280 912 8 -6.984481 1.641027 -2.131562 0 0 0
1281 913 8 -9.086987 -2.429489 2.786941 0 0 0
1282 914 8 -3.341461 3.975003 4.810244 0 0 0
1283 915 8 -1.205942 -5.187356 -0.974174 0 0 0
1284 916 8 -8.293039 -4.128165 -4.511617 0 0 0
1285 917 8 -5.842523 1.949136 2.568253 0 0 0
1286 918 8 -5.205942 5.987234 -2.450959 0 0 0
1287 919 8 -0.26007 -5.745763 -3.735243 0 0 0
1288 920 8 -8.539836 6.678613 -0.4866 0 0 0
1289 921 8 -2.350392 -2.81098 -0.022801 0 0 0
1290 922 8 -6.06196 4.143205 -1.315013 0 0 0

Velocities

1 0 0 0
2 0 0 0
3 0 0 0
4 0 0 0
5 0 0 0
6 0 0 0
7 0 0 0
8 0 0 0
9 0 0 0
10 0 0 0
11 0 0 0
12 0 0 0
13 0 0 0
14 0 0 0
15 0 0 0
16 0 0 0
17 0 0 0
18 0 0 0
19 0 0 0
20 0 0 0
21 0 0 0
22 0 0 0
23 0 0 0
24 0 0 0
25 0 0 0
26 0 0 0
27 0 0 0
28 0 0 0
29 0 0 0
30 0 0 0
31 0 0 0
32 0 0 0
33 0 0 0
34 0 0 0
35 0 0 0
36 0 0 0
37 0 0 0
38 0 0 0
39 0 0 0
40 0 0 0
41 0 0 0
42 0 0 0
43 0 0 0
44 0 0 0
45 0 0 0
46 0 0 0
47 0 0 0
48 0 0 0
49 0 0 0
50 0 0 0
51 0 0 0
52 0 0 0
53 0 0 0
54 0 0 0
55 0 0 0
56 0 0 0
57 0 0 0
58 0 0 0
59 0 0 0
60 0 0 0
61 0 0 0
62 0 0 0
63 0 0 0
64 0 0 0
65 0 0 0
66 0 0 0
67 0 0 0
68 0 0 0
69 0 0 0
70 0 0 0
71 0 0 0
72 0 0 0
73 0 0 0
74 0 0 0
75 0 0 0
76 0 0 0
77 0 0 0
78 0 0 0
79 0 0 0
80 0 0 0
81 0 0 0
82 0 0 0
83 0 0 0
84 0 0 0
85 0 0 0
86 0 0 0
87 0 0 0
88 0 0 0
89 0 0 0
90 0 0 0
91 0 0 0
92 0 0 0
93 0 0 0
94 0 0 0
95 0 0 0
96 0 0 0
97 0 0 0
98 0 0 0
99 0 0 0
100 0 0 0
101 0 0 0
102 0 0 0
103 0 0 0
104 0 0 0
105 0 0 0
106 0 0 0
107 0 0 0
108 0 0 0
109 0 0 0
110 0 0 0
111 0 0 0
112 0 0 0
113 0 0 0
114 0 0 0
115 0 0 0
116 0 0 0
117 0 0 0
118 0 0 0
119 0 0 0
120 0 0 0
121 0 0 0
122 0 0 0
123 0 0 0
124 0 0 0
125 0 0 0
126 0 0 0
127 0 0 0
128 0 0 0
129 0 0 0
130 0 0 0
131 0 0 0
132 0 0 0
133 0 0 0
134 0 0 0
135 0 0 0
136 0 0 0
137 0 0 0
138 0 0 0
139 0 0 0
140 0 0 0
141 0 0 0
142 0 0 0
143 0 0 0
144 0 0 0
145 0 0 0
146 0 0 0
147 0 0 0
148 0 0 0
149 0 0 0
150 0 0 0
151 0 0 0
152 0 0 0
153 0 0 0
154 0 0 0
155 0 0 0
156 0 0 0
157 0 0 0
158 0 0 0
159 0 0 0
160 0 0 0
161 0 0 0
162 0 0 0
163 0 0 0
164 0 0 0
165 0 0 0
166 0 0 0
167 0 0 0
168 0 0 0
169 0 0 0
170 0 0 0
171 0 0 0
172 0 0 0
173 0 0 0
174 0 0 0
175 0 0 0
176 0 0 0
177 0 0 0
178 0 0 0
179 0 0 0
180 0 0 0
181 0 0 0
182 0 0 0
183 0 0 0
184 0 0 0
185 0 0 0
186 0 0 0
187 0 0 0
188 0 0 0
189 0 0 0
190 0 0 0
191 0 0 0
192 0 0 0
193 0 0 0
194 0 0 0
195 0 0 0
196 0 0 0
197 0 0 0
198 0 0 0
199 0 0 0
200 0 0 0
201 0 0 0
202 0 0 0
203 0 0 0
204 0 0 0
205 0 0 0
206 0 0 0
207 0 0 0
208 0 0 0
209 0 0 0
210 0 0 0
211 0 0 0
212 0 0 0
213 0 0 0
214 0 0 0
215 0 0 0
216 0 0 0
217 0 0 0
218 0 0 0
219 0 0 0
220 0 0 0
221 0 0 0
222 0 0 0
223 0 0 0
224 0 0 0
225 0 0 0
226 0 0 0
227 0 0 0
228 0 0 0
229 0 0 0
230 0 0 0
231 0 0 0
232 0 0 0
233 0 0 0
234 0 0 0
235 0 0 0
236 0 0 0
237 0 0 0
238 0 0 0
239 0 0 0
240 0 0 0
241 0 0 0
242 0 0 0
243 0 0 0
244 0 0 0
245 0 0 0
246 0 0 0
247 0 0 0
248 0 0 0
249 0 0 0
250 0 0 0
251 0 0 0
252 0 0 0
253 0 0 0
254 0 0 0
255 0 0 0
256 0 0 0
257 0 0 0
258 0 0 0
259 0 0 0
260 0 0 0
261 0 0 0
262 0 0 0
263 0 0 0
264 0 0 0
265 0 0 0
266 0 0 0
267 0 0 0
268 0 0 0
269 0 0 0
270 0 0 0
271 0 0 0
272 0 0 0
273 0 0 0
274 0 0 0
275 0 0 0
276 0 0 0
277 0 0 0
278 0 0 0
279 0 0 0
280 0 0 0
281 0 0 0
282 0 0 0
283 0 0 0
284 0 0 0
285 0 0 0
286 0 0 0
287 0 0 0
288 0 0 0
289 0 0 0
290 0 0 0
291 0 0 0
292 0 0 0
293 0 0 0
294 0 0 0
295 0 0 0
296 0 0 0
297 0 0 0
298 0 0 0
299 0 0 0
300 0 0 0
301 0 0 0
302 0 0 0
303 0 0 0
304 0 0 0
305 0 0 0
306 0 0 0
307 0 0 0
308 0 0 0
309 0 0 0
310 0 0 0
311 0 0 0
312 0 0 0
313 0 0 0
314 0 0 0
315 0 0 0
316 0 0 0
317 0 0 0
318 0 0 0
319 0 0 0
320 0 0 0
321 0 0 0
322 0 0 0
323 0 0 0
324 0 0 0
325 0 0 0
326 0 0 0
327 0 0 0
328 0 0 0
329 0 0 0
330 0 0 0
331 0 0 0
332 0 0 0
333 0 0 0
334 0 0 0
335 0 0 0
336 0 0 0
337 0 0 0
338 0 0 0
339 0 0 0
340 0 0 0
341 0 0 0
342 0 0 0
343 0 0 0
344 0 0 0
345 0 0 0
346 0 0 0
347 0 0 0
348 0 0 0
349 0 0 0
350 0 0 0
351 0 0 0
352 0 0 0
353 0 0 0
354 0 0 0
355 0 0 0
356 0 0 0
357 0 0 0
358 0 0 0
359 0 0 0
360 0 0 0
361 0 0 0
362 0 0 0
363 0 0 0
364 0 0 0
365 0 0 0
366 0 0 0
367 0 0 0
368 0 0 0
369 0 0 0
370 0 0 0
371 0 0 0
372 0 0 0
373 0 0 0
374 0 0 0
375 0 0 0
376 0 0 0
377 0 0 0
378 0 0 0
379 0 0 0
380 0 0 0
381 0 0 0
382 0 0 0
383 0 0 0
384 0 0 0
385 0 0 0
386 0 0 0
387 0 0 0
388 0 0 0
389 0 0 0
390 0 0 0
391 0 0 0
392 0 0 0
393 0 0 0
394 0 0 0
395 0 0 0
396 0 0 0
397 0 0 0
398 0 0 0
399 0 0 0
400 0 0 0
401 0 0 0
402 0 0 0
403 0 0 0
404 0 0 0
405 0 0 0
406 0 0 0
407 0 0 0
408 0 0 0
409 0 0 0
410 0 0 0
411 0 0 0
412 0 0 0
413 0 0 0
414 0 0 0
415 0 0 0
416 0 0 0
417 0 0 0
418 0 0 0
419 0 0 0
420 0 0 0
421 0 0 0
422 0 0 0
423 0 0 0
424 0 0 0
425 0 0 0
426 0 0 0
427 0 0 0
428 0 0 0
429 0 0 0
430 0 0 0
431 0 0 0
432 0 0 0
433 0 0 0
434 0 0 0
435 0 0 0
436 0 0 0
437 0 0 0
438 0 0 0
439 0 0 0
440 0 0 0
441 0 0 0
442 0 0 0
443 0 0 0
444 0 0 0
445 0 0 0
446 0 0 0
447 0 0 0
448 0 0 0
449 0 0 0
450 0 0 0
451 0 0 0
452 0 0 0
453 0 0 0
454 0 0 0
455 0 0 0
456 0 0 0
457 0 0 0
458 0 0 0
459 0 0 0
460 0 0 0
461 0 0 0
462 0 0 0
463 0 0 0
464 0 0 0
465 0 0 0
466 0 0 0
467 0 0 0
468 0 0 0
469 0 0 0
470 0 0 0
471 0 0 0
472 0 0 0
473 0 0 0
474 0 0 0
475 0 0 0
476 0 0 0
477 0 0 0
478 0 0 0
479 0 0 0
480 0 0 0
481 0 0 0
482 0 0 0
483 0 0 0
484 0 0 0
485 0 0 0
486 0 0 0
487 0 0 0
488 0 0 0
489 0 0 0
490 0 0 0
491 0 0 0
492 0 0 0
493 0 0 0
494 0 0 0
495 0 0 0
496 0 0 0
497 0 0 0
498 0 0 0
499 0 0 0
500 0 0 0
501 0 0 0
502 0 0 0
503 0 0 0
504 0 0 0
505 0 0 0
506 0 0 0
507 0 0 0
508 0 0 0
509 0 0 0
510 0 0 0
511 0 0 0
512 0 0 0
513 0 0 0
514 0 0 0
515 0 0 0
516 0 0 0
517 0 0 0
518 0 0 0
519 0 0 0
520 0 0 0
521 0 0 0
522 0 0 0
523 0 0 0
524 0 0 0
525 0 0 0
526 0 0 0
527 0 0 0
528 0 0 0
529 0 0 0
530 0 0 0
531 0 0 0
532 0 0 0
533 0 0 0
534 0 0 0
535 0 0 0
536 0 0 0
537 0 0 0
538 0 0 0
539 0 0 0
540 0 0 0
541 0 0 0
542 0 0 0
543 0 0 0
544 0 0 0
545 0 0 0
546 0 0 0
547 0 0 0
548 0 0 0
549 0 0 0
550 0 0 0
551 0 0 0
552 0 0 0
553 0 0 0
554 0 0 0
555 0 0 0
556 0 0 0
557 0 0 0
558 0 0 0
559 0 0 0
560 0 0 0
561 0 0 0
562 0 0 0
563 0 0 0
564 0 0 0
565 0 0 0
566 0 0 0
567 0 0 0
568 0 0 0
569 0 0 0
570 0 0 0
571 0 0 0
572 0 0 0
573 0 0 0
574 0 0 0
575 0 0 0
576 0 0 0
577 0 0 0
578 0 0 0
579 0 0 0
580 0 0 0
581 0 0 0
582 0 0 0
583 0 0 0
584 0 0 0
585 0 0 0
586 0 0 0
587 0 0 0
588 0 0 0
589 0 0 0
590 0 0 0
591 0 0 0
592 0 0 0
593 0 0 0
594 0 0 0
595 0 0 0
596 0 0 0
597 0 0 0
598 0 0 0
599 0 0 0
600 0 0 0
601 0 0 0
602 0 0 0
603 0 0 0
604 0 0 0
605 0 0 0
606 0 0 0
607 0 0 0
608 0 0 0
609 0 0 0
610 0 0 0
611 0 0 0
612 0 0 0
613 0 0 0
614 0 0 0
615 0 0 0
616 0 0 0
617 0 0 0
618 0 0 0
619 0 0 0
620 0 0 0
621 0 0 0
622 0 0 0
623 0 0 0
624 0 0 0
625 0 0 0
626 0 0 0
627 0 0 0
628 0 0 0
629 0 0 0
630 0 0 0
631 0 0 0
632 0 0 0
633 0 0 0
634 0 0 0
635 0 0 0
636 0 0 0
637 0 0 0
638 0 0 0
639 0 0 0
640 0 0 0
641 0 0 0
642 0 0 0
643 0 0 0
644 0 0 0
645 0 0 0
646 0 0 0
647 0 0 0
648 0 0 0
649 0 0 0
650 0 0 0
651 0 0 0
652 0 0 0
653 0 0 0
654 0 0 0
655 0 0 0
656 0 0 0
657 0 0 0
658 0 0 0
659 0 0 0
660 0 0 0
661 0 0 0
662 0 0 0
663 0 0 0
664 0 0 0
665 0 0 0
666 0 0 0
667 0 0 0
668 0 0 0
669 0 0 0
670 0 0 0
671 0 0 0
672 0 0 0
673 0 0 0
674 0 0 0
675 0 0 0
676 0 0 0
677 0 0 0
678 0 0 0
679 0 0 0
680 0 0 0
681 0 0 0
682 0 0 0
683 0 0 0
684 0 0 0
685 0 0 0
686 0 0 0
687 0 0 0
688 0 0 0
689 0 0 0
690 0 0 0
691 0 0 0
692 0 0 0
693 0 0 0
694 0 0 0
695 0 0 0
696 0 0 0
697 0 0 0
698 0 0 0
699 0 0 0
700 0 0 0
701 0 0 0
702 0 0 0
703 0 0 0
704 0 0 0
705 0 0 0
706 0 0 0
707 0 0 0
708 0 0 0
709 0 0 0
710 0 0 0
711 0 0 0
712 0 0 0
713 0 0 0
714 0 0 0
715 0 0 0
716 0 0 0
717 0 0 0
718 0 0 0
719 0 0 0
720 0 0 0
721 0 0 0
722 0 0 0
723 0 0 0
724 0 0 0
725 0 0 0
726 0 0 0
727 0 0 0
728 0 0 0
729 0 0 0
730 0 0 0
731 0 0 0
732 0 0 0
733 0 0 0
734 0 0 0
735 0 0 0
736 0 0 0
737 0 0 0
738 0 0 0
739 0 0 0
740 0 0 0
741 0 0 0
742 0 0 0
743 0 0 0
744 0 0 0
745 0 0 0
746 0 0 0
747 0 0 0
748 0 0 0
749 0 0 0
750 0 0 0
751 0 0 0
752 0 0 0
753 0 0 0
754 0 0 0
755 0 0 0
756 0 0 0
757 0 0 0
758 0 0 0
759 0 0 0
760 0 0 0
761 0 0 0
762 0 0 0
763 0 0 0
764 0 0 0
765 0 0 0
766 0 0 0
767 0 0 0
768 0 0 0
769 0 0 0
770 0 0 0
771 0 0 0
772 0 0 0
773 0 0 0
774 0 0 0
775 0 0 0
776 0 0 0
777 0 0 0
778 0 0 0
779 0 0 0
780 0 0 0
781 0 0 0
782 0 0 0
783 0 0 0
784 0 0 0
785 0 0 0
786 0 0 0
787 0 0 0
788 0 0 0
789 0 0 0
790 0 0 0
791 0 0 0
792 0 0 0
793 0 0 0
794 0 0 0
795 0 0 0
796 0 0 0
797 0 0 0
798 0 0 0
799 0 0 0
800 0 0 0
801 0 0 0
802 0 0 0
803 0 0 0
804 0 0 0
805 0 0 0
806 0 0 0
807 0 0 0
808 0 0 0
809 0 0 0
810 0 0 0
811 0 0 0
812 0 0 0
813 0 0 0
814 0 0 0
815 0 0 0
816 0 0 0
817 0 0 0
818 0 0 0
819 0 0 0
820 0 0 0
821 0 0 0
822 0 0 0
823 0 0 0
824 0 0 0
825 0 0 0
826 0 0 0
827 0 0 0
828 0 0 0
829 0 0 0
830 0 0 0
831 0 0 0
832 0 0 0
833 0 0 0
834 0 0 0
835 0 0 0
836 0 0 0
837 0 0 0
838 0 0 0
839 0 0 0
840 0 0 0
841 0 0 0
842 0 0 0
843 0 0 0
844 0 0 0
845 0 0 0
846 0 0 0
847 0 0 0
848 0 0 0
849 0 0 0
850 0 0 0
851 0 0 0
852 0 0 0
853 0 0 0
854 0 0 0
855 0 0 0
856 0 0 0
857 0 0 0
858 0 0 0
859 0 0 0
860 0 0 0
861 0 0 0
862 0 0 0
863 0 0 0
864 0 0 0
865 0 0 0
866 0 0 0
867 0 0 0
868 0 0 0
869 0 0 0
870 0 0 0
871 0 0 0
872 0 0 0
873 0 0 0
874 0 0 0
875 0 0 0
876 0 0 0
877 0 0 0
878 0 0 0
879 0 0 0
880 0 0 0
881 0 0 0
882 0 0 0
883 0 0 0
884 0 0 0
885 0 0 0
886 0 0 0
887 0 0 0
888 0 0 0
889 0 0 0
890 0 0 0
891 0 0 0
892 0 0 0
893 0 0 0
894 0 0 0
895 0 0 0
896 0 0 0
897 0 0 0
898 0 0 0
899 0 0 0
900 0 0 0
901 0 0 0
902 0 0 0
903 0 0 0
904 0 0 0
905 0 0 0
906 0 0 0
907 0 0 0
908 0 0 0
909 0 0 0
910 0 0 0
911 0 0 0
912 0 0 0
913 0 0 0
914 0 0 0
915 0 0 0
916 0 0 0
917 0 0 0
918 0 0 0
919 0 0 0
920 0 0 0
921 0 0 0
922 0 0 0
923 0 0 0
924 0 0 0
925 0 0 0
926 0 0 0
927 0 0 0
928 0 0 0
929 0 0 0
930 0 0 0
931 0 0 0
932 0 0 0
933 0 0 0
934 0 0 0
935 0 0 0
936 0 0 0
937 0 0 0
938 0 0 0
939 0 0 0
940 0 0 0
941 0 0 0
942 0 0 0
943 0 0 0
944 0 0 0
945 0 0 0
946 0 0 0
947 0 0 0
948 0 0 0
949 0 0 0
950 0 0 0
951 0 0 0
952 0 0 0
953 0 0 0
954 0 0 0
955 0 0 0
956 0 0 0
957 0 0 0
958 0 0 0
959 0 0 0
960 0 0 0
961 0 0 0
962 0 0 0
963 0 0 0
964 0 0 0
965 0 0 0
966 0 0 0
967 0 0 0
968 0 0 0
969 0 0 0
970 0 0 0
971 0 0 0
972 0 0 0
973 0 0 0
974 0 0 0
975 0 0 0
976 0 0 0
977 0 0 0
978 0 0 0
979 0 0 0
980 0 0 0
981 0 0 0
982 0 0 0
983 0 0 0
984 0 0 0
985 0 0 0
986 0 0 0
987 0 0 0
988 0 0 0
989 0 0 0
990 0 0 0
991 0 0 0
992 0 0 0
993 0 0 0
994 0 0 0
995 0 0 0
996 0 0 0
997 0 0 0
998 0 0 0
999 0 0 0
1000 0 0 0
1001 0 0 0
1002 0 0 0
1003 0 0 0
1004 0 0 0
1005 0 0 0
1006 0 0 0
1007 0 0 0
1008 0 0 0
1009 0 0 0
1010 0 0 0
1011 0 0 0
1012 0 0 0
1013 0 0 0
1014 0 0 0
1015 0 0 0
1016 0 0 0
1017 0 0 0
1018 0 0 0
1019 0 0 0
1020 0 0 0
1021 0 0 0
1022 0 0 0
1023 0 0 0
1024 0 0 0
1025 0 0 0
1026 0 0 0
1027 0 0 0
1028 0 0 0
1029 0 0 0
1030 0 0 0
1031 0 0 0
1032 0 0 0
1033 0 0 0
1034 0 0 0
1035 0 0 0
1036 0 0 0
1037 0 0 0
1038 0 0 0
1039 0 0 0
1040 0 0 0
1041 0 0 0
1042 0 0 0
1043 0 0 0
1044 0 0 0
1045 0 0 0
1046 0 0 0
1047 0 0 0
1048 0 0 0
1049 0 0 0
1050 0 0 0
1051 0 0 0
1052 0 0 0
1053 0 0 0
1054 0 0 0
1055 0 0 0
1056 0 0 0
1057 0 0 0
1058 0 0 0
1059 0 0 0
1060 0 0 0
1061 0 0 0
1062 0 0 0
1063 0 0 0
1064 0 0 0
1065 0 0 0
1066 0 0 0
1067 0 0 0
1068 0 0 0
1069 0 0 0
1070 0 0 0
1071 0 0 0
1072 0 0 0
1073 0 0 0
1074 0 0 0
1075 0 0 0
1076 0 0 0
1077 0 0 0
1078 0 0 0
1079 0 0 0
1080 0 0 0
1081 0 0 0
1082 0 0 0
1083 0 0 0
1084 0 0 0
1085 0 0 0
1086 0 0 0
1087 0 0 0
1088 0 0 0
1089 0 0 0
1090 0 0 0
1091 0 0 0
1092 0 0 0
1093 0 0 0
1094 0 0 0
1095 0 0 0
1096 0 0 0
1097 0 0 0
1098 0 0 0
1099 0 0 0
1100 0 0 0
1101 0 0 0
1102 0 0 0
1103 0 0 0
1104 0 0 0
1105 0 0 0
1106 0 0 0
1107 0 0 0
1108 0 0 0
1109 0 0 0
1110 0 0 0
1111 0 0 0
1112 0 0 0
1113 0 0 0
1114 0 0 0
1115 0 0 0
1116 0 0 0
1117 0 0 0
1118 0 0 0
1119 0 0 0
1120 0 0 0
1121 0 0 0
1122 0 0 0
1123 0 0 0
1124 0 0 0
1125 0 0 0
1126 0 0 0
1127 0 0 0
1128 0 0 0
1129 0 0 0
1130 0 0 0
1131 0 0 0
1132 0 0 0
1133 0 0 0
1134 0 0 0
1135 0 0 0
1136 0 0 0
1137 0 0 0
1138 0 0 0
1139 0 0 0
1140 0 0 0
1141 0 0 0
1142 0 0 0
1143 0 0 0
1144 0 0 0
1145 0 0 0
1146 0 0 0
1147 0 0 0
1148 0 0 0
1149 0 0 0
1150 0 0 0
1151 0 0 0
1152 0 0 0
1153 0 0 0
1154 0 0 0
1155 0 0 0
1156 0 0 0
1157 0 0 0
1158 0 0 0
1159 0 0 0
1160 0 0 0
1161 0 0 0
1162 0 0 0
1163 0 0 0
1164 0 0 0
1165 0 0 0
1166 0 0 0
1167 0 0 0
1168 0 0 0
1169 0 0 0
1170 0 0 0
1171 0 0 0
1172 0 0 0
1173 0 0 0
1174 0 0 0
1175 0 0 0
1176 0 0 0
1177 0 0 0
1178 0 0 0
1179 0 0 0
1180 0 0 0
1181 0 0 0
1182 0 0 0
1183 0 0 0
1184 0 0 0
1185 0 0 0
1186 0 0 0
1187 0 0 0
1188 0 0 0
1189 0 0 0
1190 0 0 0
1191 0 0 0
1192 0 0 0
1193 0 0 0
1194 0 0 0
1195 0 0 0
1196 0 0 0
1197 0 0 0
1198 0 0 0
1199 0 0 0
1200 0 0 0
1201 0 0 0
1202 0 0 0
1203 0 0 0
1204 0 0 0
1205 0 0 0
1206 0 0 0
1207 0 0 0
1208 0 0 0
1209 0 0 0
1210 0 0 0
1211 0 0 0
1212 0 0 0
1213 0 0 0
1214 0 0 0
1215 0 0 0
1216 0 0 0
1217 0 0 0
1218 0 0 0
1219 0 0 0
1220 0 0 0
1221 0 0 0
1222 0 0 0
1223 0 0 0
1224 0 0 0
1225 0 0 0
1226 0 0 0
1227 0 0 0
1228 0 0 0
1229 0 0 0
1230 0 0 0
1231 0 0 0
1232 0 0 0
1233 0 0 0
1234 0 0 0
1235 0 0 0
1236 0 0 0
1237 0 0 0
1238 0 0 0
1239 0 0 0
1240 0 0 0
1241 0 0 0
1242 0 0 0
1243 0 0 0
1244 0 0 0
1245 0 0 0
1246 0 0 0
1247 0 0 0
1248 0 0 0
1249 0 0 0
1250 0 0 0
1251 0 0 0
1252 0 0 0
1253 0 0 0
1254 0 0 0
1255 0 0 0
1256 0 0 0
1257 0 0 0
1258 0 0 0
1259 0 0 0
1260 0 0 0
1261 0 0 0
1262 0 0 0
1263 0 0 0
1264 0 0 0
1265 0 0 0
1266 0 0 0
1267 0 0 0
1268 0 0 0
1269 0 0 0
1270 0 0 0
1271 0 0 0
1272 0 0 0
1273 0 0 0
1274 0 0 0
1275 0 0 0
1276 0 0 0
1277 0 0 0
1278 0 0 0
1279 0 0 0
1280 0 0 0
1281 0 0 0
1282 0 0 0
1283 0 0 0
1284 0 0 0
1285 0 0 0
1286 0 0 0
1287 0 0 0
1288 0 0 0
1289 0 0 0
1290 0 0 0

Bonds

1 1 1 2
2 1 2 3
3 1 3 4
4 1 4 5
5 1 5 6
6 1 6 7
7 1 7 8
8 1 8 9
9 1 9 10
10 1 10 11
11 1 11 12
12 1 12 13
13 1 13 14
14 1 14 15
15 1 15 16
16 1 16 17
17 1 17 18
18 1 18 19
19 1 19 20
20 1 20 21
21 1 21 22
22 1 22 23
23 1 23 24
24 1 24 25
25 1 25 26
26 1 26 27
27 1 27 28
28 1 28 29
29 1 29 30
30 1 30 31
31 1 31 32
32 1 32 33
33 1 33 34
34 1 34 35
35 1 35 36
36 1 36 37
37 1 37 38
38 1 38 39
39 1 39 40
40 1 40 41
41 1 41 42
42 1 42 43
43 1 43 44
44 1 44 45
45 1 45 46
46 1 46 47
47 1 47 48
48 1 48 49
49 1 49 50
50 1 50 51
51 1 51 52
52 1 52 53
53 1 53 54
54 1 54 55
55 1 55 56
56 1 56 57
57 1 57 58
58 1 58 59
59 1 59 60
60 1 60 61
61 1 61 62
62 1 62 63
63 1 63 64
64 1 64 65
65 1 65 66
66 1 66 67
67 1 67 68
68 1 68 69
69 1 69 70
70 1 70 71
71 1 71 72
72 1 72 73
73 1 73 74
74 1 74 75
75 1 75 76
76 1 76 77
77 1 77 78
78 1 78 79
79 1 79 80
80 1 80 81
81 1 81 82
82 1 82 83
83 1 83 84
84 1 84 85
85 1 85 86
86 1 86 87
87 1 87 88
88 1 88 89
89 1 89 90
90 1 90 91
91 1 91 92
92 1 92 93
93 1 93 94
94 1 94 95
95 1 95 96
96 1 96 97
97 1 97 98
98 1 98 99
99 1 99 100
100 1 100 101
101 1 101 102
102 1 102 103
103 1 103 104
104 1 104 105
105 1 105 106
106 1 106 107
107 1 107 108
108 1 108 109
109 1 109 110
110 1 110 111
111 1 111 112
112 1 112 113
113 1 113 114
114 1 114 115
115 1 115 116
116 1 116 117
117 1 117 118
118 1 118 119
119 1 119 120
120 1 120 121
121 1 121 122
122 1 122 123
123 1 124 125
124 1 125 126
125 1 126 127
126 1 127 128
127 1 128 129
128 1 129 130
129 1 130 131
130 1 131 132
131 1 132 133
132 1 133 134
133 1 134 135
134 1 135 136
135 1 136 137
136 1 137 138
137 1 138 139
138 1 139 140
139 1 140 141
140 1 141 142
141 1 142 143
142 1 143 144
143 1 144 145
144 1 145 146
145 1 146 147
146 1 147 148
147 1 148 149
148 1 149 150
149 1 150 151
150 1 151 152
151 1 152 153
152 1 153 154
153 1 154 155
154 1 155 156
155 1 156 157
156 1 157 158
157 1 158 159
158 1 159 160
159 1 160 161
160 1 161 162
161 1 162 163
162 1 163 164
163 1 164 165
164 1 165 166
165 1 166 167
166 1 167 168
167 1 168 169
168 1 169 170
169 1 170 171
170 1 171 172
171 1 172 173
172 1 173 174
173 1 174 175
174 1 175 176
175 1 176 177
176 1 177 178
177 1 178 179
178 1 179 180
179 1 180 181
180 1 181 182
181 1 182 183
182 1 183 184
183 1 184 185
184 1 185 186
185 1 186 187
186 1 187 188
187 1 188 189
188 1 189 190
189 1 190 191
190 1 191 192
191 1 192 193
192 1 193 194
193 1 194 195
194 1 195 196
195 1 196 197
196 1 197 198
197 1 198 199
198 1 199 200
199 1 200 201
200 1 201 202
201 1 202 203
202 1 203 204
203 1 204 205
204 1 205 206
205 1 206 207
206 1 207 208
207 1 208 209
208 1 209 210
209 1 210 211
210 1 211 212
211 1 212 213
212 1 213 214
213 1 214 215
214 1 215 216
215 1 216 217
216 1 217 218
217 1 218 219
218 1 219 220
219 1 220 221
220 1 221 222
221 1 222 223
222 1 223 224
223 1 224 225
224 1 225 226
225 1 226 227
226 1 227 228
227 1 228 229
228 1 229 230
229 1 230 231
230 1 231 232
231 1 232 233
232 1 233 234
233 1 234 235
234 1 235 236
235 1 236 237
236 1 237 238
237 1 238 239
238 1 239 240
239 1 240 241
240 1 241 242
241 1 242 243
242 1 243 244
243 1 244 245
244 1 245 246
245 1 246 247
246 1 247 248
247 1 248 249
248 1 249 250
249 1 250 251
250 1 251 252
251 1 252 253
252 1 253 254
253 1 254 255
254 1 255 256
255 1 256 257
256 1 257 258
257 1 258 259
258 1 259 260
259 1 260 261
260 1 261 262
261 1 262 263
262 1 263 264
263 1 264 265
264 1 265 266
265 1 266 267
266 1 267 268
267 1 268 269
268 1 269 270
269 1 270 271
270 1 271 272
271 1 272 273
272 1 273 274
273 1 274 275
274 1 275 276
275 1 276 277
276 1 277 278
277 1 278 279
278 1 279 280
279 1 280 281
280 1 281 282
281 1 282 283
282 1 283 284
283 1 284 285
284 1 285 286
285 1 286 287
286 1 287 288
287 1 288 289
288 1 289 290
289 1 290 291
290 1 291 292
291 1 292 293
292 1 293 294
293 1 294 295
294 1 295 296
295 1 296 297
296 1 297 298
297 1 298 299
298 1 299 300
299 1 300 301
300 1 301 302
301 1 302 303
302 1 303 304
303 1 304 305
304 1 305 306
305 1 306 307
306 1 307 308
307 1 308 309
308 1 309 310
309 1 310 311
310 1 311 312
311 1 312 313
312 1 313 314
313 1 314 315
314 1 315 316
315 1 316 317
316 1 317 318
317 1 318 319
318 1 319 320
319 1 320 321
320 1 321 322
321 1 322 323
322 1 323 324
323 1 324 325
324 1 325 326
325 1 326 327
326 1 327 328
327 1 328 329
328 1 329 330
329 1 330 331
330 1 331 332
331 1 332 333
332 1 333 334
333 1 334 335
334 1 335 336
335 1 336 337
336 1 337 338
337 1 338 339
338 1 339 340
339 1 340 341
340 1 341 342
341 1 342 343
342 1 343 344
343 1 344 345
344 1 345 346
345 1 346 347
346 1 347 348
347 1 348 349
348 1 349 350
349 1 350 351
350 1 351 352
351 1 352 353
352 1 353 354
353 1 354 355
354 1 355 356
355 1 356 357
356 1 357 358
357 1 358 359
358 1 359 360
359 1 360 361
360 1 361 362
361 1 362 363
362 1 363 364
363 1 364 365
364 1 365 366
365 1 366 367
366 1 367 368
367 1 368 369
368 1 369 370

Angles

1 1 1 2 3
2 1 2 3 4
3 1 3 4 5
4 1 4 5 6
5 1 5 6 7
6 1 6 7 8
7 1 7 8 9
8 1 8 9 10
9 1 9 10 11
10 1 10 11 12
11 1 11 12 13
12 1 12 13 14
13 1 13 14 15
14 1 14 15 16
15 1 15 16 17
16 1 16 17 18
17 1 17 18 19
18 1 18 19 20
19 1 19 20 21
20 1 20 21 22
21 1 21 22 23
22 1 22 23 24
23 1 23 24 25
24 1 24 25 26
25 1 25 26 27
26 1 26 27 28
27 1 27 28 29
28 1 28 29 30
29 1 29 30 31
30 1 30 31 32
31 1 31 32 33
32 1 32 33 34
33 1 33 34 35
34 1 34 35 36
35 1 35 36 37
36 1 36 37 38
37 1 37 38 39
38 1 38 39 40
39 1 39 40 41
40 1 40 41 42
41 1 41 42 43
42 1 42 43 44
43 1 43 44 45
44 1 44 45 46
45 1 45 46 47
46 1 46 47 48
47 1 47 48 49
48 1 48 49 50
49 1 49 50 51
50 1 50 51 52
51 1 51 52 53
52 1 52 53 54
53 1 53 54 55
54 1 54 55 56
55 1 55 56 57
56 1 56 57 58
57 1 57 58 59
58 1 58 59 60
59 1 59 60 61
60 1 60 61 62
61 1 61 62 63
62 1 62 63 64
63 1 63 64 65
64 1 64 65 66
65 1 65 66 67
66 1 66 67 68
67 1 67 68 69
68 1 68 69 70
69 1 69 70 71
70 1 70 71 72
71 1 71 72 73
72 1 72 73 74
73 1 73 74 75
74 1 74 75 76
75 1 75 76 77
76 1 76 77 78
77 1 77 78 79
78 1 78 79 80
79 1 79 80 81
80 1 80 81 82
81 1 81 82 83
82 1 82 83 84
83 1 83 84 85
84 1 84 85 86
85 1 85 86 87
86 1 86 87 88
87 1 87 88 89
88 1 88 89 90
89 1 89 90 91
90 1 90 91 92
91 1 91 92 93
92 1 92 93 94
93 1 93 94 95
94 1 94 95 96
95 1 95 96 97
96 1 96 97 98
97 1 97 98 99
98 1 98 99 100
99 1 99 100 101
100 1 100 101 102
101 1 101 102 103
102 1 102 103 104
103 1 103 104 105
104 1 104 105 106
105 1 105 106 107
106 1 106 107 108
107 1 107 108 109
108 1 108 109 110
109 1 109 110 111
110 1 110 111 112
111 1 111 112 113
112 1 112 113 114
113 1 113 114 115
114 1 114 115 116
115 1 115 116 117
116 1 116 117 118
117 1 117 118 119
118 1 118 119 120
119 1 119 120 121
120 1 120 121 122
121 1 121 122 123
122 1 124 125 126
123 1 125 126 127
124 1 126 127 128
125 1 127 128 129
126 1 128 129 130
127 1 129 130 131
128 1 130 131 132
129 1 131 132 133
130 1 132 133 134
131 1 133 134 135
132 1 134 135 136
133 1 135 136 137
134 1 136 137 138
135 1 137 138 139
136 1 138 139 140
137 1 139 140 141
138 1 140 141 142
139 1 141 142 143
140 1 142 143 144
141 1 143 144 145
142 1 144 145 146
143 1 145 146 147
144 1 146 147 148
145 1 147 148 149
146 1 148 149 150
147 1 149 150 151
148 1 150 151 152
149 1 151 152 153
150 1 152 153 154
151 1 153 154 155
152 1 154 155 156
153 1 155 156 157
154 1 156 157 158
155 1 157 158 159
156 1 158 159 160
157 1 159 160 161
158 1 160 161 162
159 1 161 162 163
160 1 162 163 164
161 1 163 164 165
162 1 164 165 166
163 1 165 166 167
164 1 166 167 168
165 1 167 168 169
166 1 168 169 170
167 1 169 170 171
168 1 170 171 172
169 1 171 172 173
170 1 172 173 174
171 1 173 174 175
172 1 174 175 176
173 1 175 176 177
174 1 176 177 178
175 1 177 178 179
176 1 178 179 180
177 1 179 180 181
178 1 180 181 182
179 1 181 182 183
180 1 182 183 184
181 1 183 184 185
182 1 184 185 186
183 1 185 186 187
184 1 186 187 188
185 1 187 188 189
186 1 188 189 190
187 1 189 190 191
188 1 190 191 192
189 1 191 192 193
190 1 192 193 194
191 1 193 194 195
192 1 194 195 196
193 1 195 196 197
194 1 196 197 198
195 1 197 198 199
196 1 198 199 200
197 1 199 200 201
198 1 200 201 202
199 1 201 202 203
200 1 202 203 204
201 1 203 204 205
202 1 204 205 206
203 1 205 206 207
204 1 206 207 208
205 1 207 208 209
206 1 208 209 210
207 1 209 210 211
208 1 210 211 212
209 1 211 212 213
210 1 212 213 214
211 1 213 214 215
212 1 214 215 216
213 1 215 216 217
214 1 216 217 218
215 1 217 218 219
216 1 218 219 220
217 1 219 220 221
218 1 220 221 222
219 1 221 222 223
220 1 222 223 224
221 1 223 224 225
222 1 224 225 226
223 1 225 226 227
224 1 226 227 228
225 1 227 228 229
226 1 228 229 230
227 1 229 230 231
228 1 230 231 232
229 1 231 232 233
230 1 232 233 234
231 1 233 234 235
232 1 234 235 236
233 1 235 236 237
234 1 236 237 238
235 1 237 238 239
236 1 238 239 240
237 1 239 240 241
238 1 240 241 242
239 1 241 242 243
240 1 242 243 244
241 1 243 244 245
242 1 244 245 246
243 1 245 246 247
244 1 246 247 248
245 1 247 248 249
246 1 248 249 250
247 1 249 250 251
248 1 250 251 252
249 1 251 252 253
250 1 252 253 254
251 1 253 254 255
252 1 254 255 256
253 1 255 256 257
254 1 256 257 258
255 1 257 258 259
256 1 258 259 260
257 1 259 260 261
258 1 260 261 262
259 1 261 262 263
260 1 262 263 264
261 1 263 264 265
262 1 264 265 266
263 1 265 266 267
264 1 266 267 268
265 1 267 268 269
266 1 268 269 270
267 1 269 270 271
268 1 270 271 272
269 1 271 272 273
270 1 272 273 274
271 1 273 274 275
272 1 274 275 276
273 1 275 276 277
274 1 276 277 278
275 1 277 278 279
276 1 278 279 280
277 1 279 280 281
278 1 280 281 282
279 1 281 282 283
280 1 282 283 284
281 1 283 284 285
282 1 284 285 286
283 1 285 286 287
284 1 286 287 288
285 1 287 288 289
286 1 288 289 290
287 1 289 290 291
288 1 290 291 292
289 1 291 292 293
290 1 292 293 294
291 1 293 294 295
292 1 294 295 296
293 1 295 296 297
294 1 296 297 298
295 1 297 298 299
296 1 298 299 300
297 1 299 300 301
298 1 300 301 302
299 1 301 302 303
300 1 302 303 304
301 1 303 304 305
302 1 304 305 306
303 1 305 306 307
304 1 306 307 308
305 1 307 308 309
306 1 308 309 310
307 1 309 310 311
308 1 310 311 312
309 1 311 312 313
310 1 312 313 314
311 1 313 314 315
312 1 314 315 316
313 1 315 316 317
314 1 316 317 318
315 1 317 318 319
316 1 318 319 320
317 1 319 320 321
318 1 320 321 322
319 1 321 322 323
320 1 322 323 324
321 1 323 324 325
322 1 324 325 326
323 1 325 326 327
324 1 326 327 328
325 1 327 328 329
326 1 328 329 330
327 1 329 330 331
328 1 330 331 332
329 1 331 332 333
330 1 332 333 334
331 1 333 334 335
332 1 334 335 336
333 1 335 336 337
334 1 336 337 338
335 1 337 338 339
336 1 338 339 340
337 1 339 340 341
338 1 340 341 342
339 1 341 342 343
340 1 342 343 344
341 1 343 344 345
342 1 344 345 346
343 1 345 346 347
344 1 346 347 348
345 1 347 348 349
346 1 348 349 350
347 1 349 350 351
348 1 350 351 352
349 1 351 352 353
350 1 352 353 354
351 1 353 354 355
352 1 354 355 356
353 1 355 356 357
354 1 356 357 358
355 1 357 358 359
356 1 358 359 360
357 1 359 360 361
358 1 360 361 362
359 1 361 362 363
360 1 362 363 364
361 1 363 364 365
362 1 364 365 366
363 1 365 366 367
364 1 366 367 368
365 1 367 368 369
366 1 368 369 370
