LAMMPS input file for a BOX simulation to test induced gene movement in a small shoe box.

1290 atoms
368 bonds
366 angles

11 atom types
2 bond types
2 angle types

-13.0 13.0 xlo xhi
-9.5 9.5 ylo yhi
-7.0 7.0 zlo zhi

Masses

1 1
2 1
3 1
4 1
5 1
6 1
7 1
8 1
9 1
10 1
11 1

Atoms

1 1 1 -11 -3.75 0 0 0 0
2 1 1 -11 -3.6885245901639343 0 0 0 0
3 1 1 -11 -3.627049180327869 0 0 0 0
4 1 1 -11 -3.5655737704918034 0 0 0 0
5 1 1 -11 -3.5040983606557377 0 0 0 0
6 1 1 -11 -3.442622950819672 0 0 0 0
7 1 1 -11 -3.3811475409836067 0 0 0 0
8 1 1 -11 -3.319672131147541 0 0 0 0
9 1 1 -11 -3.2581967213114753 0 0 0 0
10 1 1 -11 -3.19672131147541 0 0 0 0
11 1 1 -11 -3.1352459016393444 0 0 0 0
12 1 1 -11 -3.0737704918032787 0 0 0 0
13 1 1 -11 -3.0122950819672134 0 0 0 0
14 1 1 -11 -2.9508196721311477 0 0 0 0
15 1 1 -11 -2.889344262295082 0 0 0 0
16 1 1 -11 -2.8278688524590163 0 0 0 0
17 1 1 -11 -2.7663934426229506 0 0 0 0
18 1 1 -11 -2.7049180327868854 0 0 0 0
19 1 1 -11 -2.6434426229508197 0 0 0 0
20 1 1 -11 -2.581967213114754 0 0 0 0
21 1 1 -11 -2.5204918032786887 0 0 0 0
22 1 1 -11 -2.459016393442623 0 0 0 0
23 1 1 -11 -2.3975409836065573 0 0 0 0
24 1 1 -11 -2.336065573770492 0 0 0 0
25 1 1 -11 -2.2745901639344264 0 0 0 0
26 1 1 -11 -2.2131147540983607 0 0 0 0
27 1 1 -11 -2.1516393442622954 0 0 0 0
28 1 1 -11 -2.0901639344262293 0 0 0 0
29 1 1 -11 -2.028688524590164 0 0 0 0
30 1 1 -11 -1.9672131147540983 0 0 0 0
31 1 1 -11 -1.9057377049180328 0 0 0 0
32 1 1 -11 -1.8442622950819672 0 0 0 0
33 1 1 -11 -1.7827868852459017 0 0 0 0
34 1 1 -11 -1.721311475409836 0 0 0 0
35 1 1 -11 -1.6598360655737707 0 0 0 0
36 1 1 -11 -1.598360655737705 0 0 0 0
37 1 1 -11 -1.5368852459016393 0 0 0 0
38 1 9 -11 -1.4754098360655736 0 0 0 0
39 1 9 -11 -1.4139344262295084 0 0 0 0
40 1 9 -11 -1.3524590163934427 0 0 0 0
41 1 9 -11 -1.290983606557377 0 0 0 0
42 1 9 -11 -1.2295081967213117 0 0 0 0
43 1 9 -11 -1.168032786885246 0 0 0 0
44 1 9 -11 -1.1065573770491803 0 0 0 0
45 1 9 -11 -1.0450819672131146 0 0 0 0
46 1 9 -11 -0.9836065573770494 0 0 0 0
47 1 9 -11 -0.9221311475409837 0 0 0 0
48 1 9 -11 -0.860655737704918 0 0 0 0
49 1 9 -11 -0.7991803278688527 0 0 0 0
50 1 9 -11 -0.737704918032787 0 0 0 0
51 1 9 -11 -0.6762295081967213 0 0 0 0
52 1 9 -11 -0.6147540983606556 0 0 0 0
53 1 9 -11 -0.5532786885245904 0 0 0 0
54 1 9 -11 -0.4918032786885247 0 0 0 0
55 1 9 -11 -0.430327868852459 0 0 0 0
56 1 9 -11 -0.3688524590163933 0 0 0 0
57 1 9 -11 -0.30737704918032804 0 0 0 0
58 1 9 -11 -0.24590163934426235 0 0 0 0
59 1 9 -11 -0.18442622950819665 0 0 0 0
60 1 9 -11 -0.1229508196721314 0 0 0 0
61 1 9 -11 -0.0614754098360657 0 0 0 0
62 1 9 -11 0.0 0 0 0 0
63 1 9 -11 0.0614754098360657 0 0 0 0
64 1 9 -11 0.12295081967213095 0 0 0 0
65 1 9 -11 0.18442622950819665 0 0 0 0
66 1 9 -11 0.24590163934426235 0 0 0 0
67 1 9 -11 0.30737704918032804 0 0 0 0
68 1 9 -11 0.3688524590163933 0 0 0 0
69 1 9 -11 0.43032786885245855 0 0 0 0
70 1 9 -11 0.4918032786885247 0 0 0 0
71 1 9 -11 0.55327868852459 0 0 0 0
72 1 9 -11 0.6147540983606561 0 0 0 0
73 1 9 -11 0.6762295081967213 0 0 0 0
74 1 9 -11 0.7377049180327866 0 0 0 0
75 1 9 -11 0.7991803278688527 0 0 0 0
76 1 9 -11 0.860655737704918 0 0 0 0
77 1 9 -11 0.9221311475409832 0 0 0 0
78 1 9 -11 0.9836065573770494 0 0 0 0
79 1 9 -11 1.0450819672131146 0 0 0 0
80 1 9 -11 1.10655737704918 0 0 0 0
81 1 9 -11 1.168032786885246 0 0 0 0
82 1 9 -11 1.2295081967213113 0 0 0 0
83 1 9 -11 1.2909836065573765 0 0 0 0
84 1 9 -11 1.3524590163934427 0 0 0 0
85 1 9 -11 1.413934426229508 0 0 0 0
86 1 9 -11 1.475409836065574 0 0 0 0
87 1 9 -11 1.5368852459016393 0 0 0 0
88 1 1 -11 1.5983606557377046 0 0 0 0
89 1 1 -11 1.6598360655737707 0 0 0 0
90 1 1 -11 1.721311475409836 0 0 0 0
91 1 1 -11 1.7827868852459012 0 0 0 0
92 1 1 -11 1.8442622950819674 0 0 0 0
93 1 1 -11 1.9057377049180326 0 0 0 0
94 1 1 -11 1.9672131147540979 0 0 0 0
95 1 1 -11 2.028688524590164 0 0 0 0
96 1 1 -11 2.0901639344262293 0 0 0 0
97 1 1 -11 2.1516393442622945 0 0 0 0
98 1 1 -11 2.2131147540983607 0 0 0 0
99 1 1 -11 2.274590163934426 0 0 0 0
100 1 1 -11 2.336065573770492 0 0 0 0
101 1 1 -11 2.3975409836065573 0 0 0 0
102 1 1 -11 2.4590163934426226 0 0 0 0
103 1 1 -11 2.5204918032786887 0 0 0 0
104 1 1 -11 2.581967213114754 0 0 0 0
105 1 1 -11 2.643442622950819 0 0 0 0
106 1 1 -11 2.7049180327868854 0 0 0 0
107 1 1 -11 2.7663934426229506 0 0 0 0
108 1 1 -11 2.827868852459016 0 0 0 0
109 1 1 -11 2.889344262295082 0 0 0 0
110 1 1 -11 2.9508196721311473 0 0 0 0
111 1 1 -11 3.0122950819672134 0 0 0 0
112 1 1 -11 3.0737704918032787 0 0 0 0
113 1 1 -11 3.135245901639344 0 0 0 0
114 1 1 -11 3.19672131147541 0 0 0 0
115 1 1 -11 3.2581967213114753 0 0 0 0
116 1 1 -11 3.3196721311475406 0 0 0 0
117 1 1 -11 3.3811475409836067 0 0 0 0
118 1 1 -11 3.442622950819672 0 0 0 0
119 1 1 -11 3.504098360655737 0 0 0 0
120 1 1 -11 3.5655737704918034 0 0 0 0
121 1 1 -11 3.6270491803278686 0 0 0 0
122 1 1 -11 3.688524590163934 0 0 0 0
123 1 1 -11 3.75 0 0 0 0
124 2 1 11 -3.75 0 0 0 0
125 2 1 11 -3.7195121951219514 0 0 0 0
126 2 1 11 -3.6890243902439024 0 0 0 0
127 2 1 11 -3.658536585365854 0 0 0 0
128 2 1 11 -3.6280487804878048 0 0 0 0
129 2 1 11 -3.597560975609756 0 0 0 0
130 2 1 11 -3.567073170731707 0 0 0 0
131 2 1 11 -3.5365853658536586 0 0 0 0
132 2 1 11 -3.5060975609756095 0 0 0 0
133 2 1 11 -3.475609756097561 0 0 0 0
134 2 1 11 -3.4451219512195124 0 0 0 0
135 2 1 11 -3.4146341463414633 0 0 0 0
136 2 1 11 -3.3841463414634148 0 0 0 0
137 2 1 11 -3.3536585365853657 0 0 0 0
138 2 1 11 -3.323170731707317 0 0 0 0
139 2 1 11 -3.2926829268292686 0 0 0 0
140 2 1 11 -3.2621951219512195 0 0 0 0
141 2 1 11 -3.2317073170731705 0 0 0 0
142 2 1 11 -3.201219512195122 0 0 0 0
143 2 1 11 -3.1707317073170733 0 0 0 0
144 2 1 11 -3.1402439024390243 0 0 0 0
145 2 1 11 -3.1097560975609757 0 0 0 0
146 2 1 11 -3.0792682926829267 0 0 0 0
147 2 1 11 -3.048780487804878 0 0 0 0
148 2 1 11 -3.0182926829268295 0 0 0 0
149 2 1 11 -2.9878048780487805 0 0 0 0
150 2 1 11 -2.9573170731707314 0 0 0 0
151 2 1 11 -2.926829268292683 0 0 0 0
152 2 1 11 -2.8963414634146343 0 0 0 0
153 2 1 11 -2.8658536585365852 0 0 0 0
154 2 1 11 -2.8353658536585367 0 0 0 0
155 2 1 11 -2.8048780487804876 0 0 0 0
156 2 1 11 -2.774390243902439 0 0 0 0
157 2 1 11 -2.7439024390243905 0 0 0 0
158 2 1 11 -2.7134146341463414 0 0 0 0
159 2 1 11 -2.6829268292682924 0 0 0 0
160 2 1 11 -2.652439024390244 0 0 0 0
161 2 1 11 -2.6219512195121952 0 0 0 0
162 2 1 11 -2.5914634146341466 0 0 0 0
163 2 1 11 -2.5609756097560976 0 0 0 0
164 2 1 11 -2.5304878048780486 0 0 0 0
165 2 1 11 -2.5 0 0 0 0
166 2 1 11 -2.4695121951219514 0 0 0 0
167 2 1 11 -2.4390243902439024 0 0 0 0
168 2 1 11 -2.408536585365854 0 0 0 0
169 2 1 11 -2.3780487804878048 0 0 0 0
170 2 1 11 -2.347560975609756 0 0 0 0
171 2 1 11 -2.3170731707317076 0 0 0 0
172 2 1 11 -2.2865853658536586 0 0 0 0
173 2 1 11 -2.2560975609756095 0 0 0 0
174 2 1 11 -2.225609756097561 0 0 0 0
175 2 1 11 -2.1951219512195124 0 0 0 0
176 2 1 11 -2.1646341463414633 0 0 0 0
177 2 1 11 -2.1341463414634148 0 0 0 0
178 2 1 11 -2.1036585365853657 0 0 0 0
179 2 1 11 -2.073170731707317 0 0 0 0
180 2 1 11 -2.0426829268292686 0 0 0 0
181 2 1 11 -2.0121951219512195 0 0 0 0
182 2 1 11 -1.9817073170731707 0 0 0 0
183 2 1 11 -1.951219512195122 0 0 0 0
184 2 1 11 -1.9207317073170733 0 0 0 0
185 2 1 11 -1.8902439024390245 0 0 0 0
186 2 1 11 -1.8597560975609757 0 0 0 0
187 2 1 11 -1.829268292682927 0 0 0 0
188 2 1 11 -1.798780487804878 0 0 0 0
189 2 1 11 -1.7682926829268293 0 0 0 0
190 2 1 11 -1.7378048780487805 0 0 0 0
191 2 1 11 -1.707317073170732 0 0 0 0
192 2 1 11 -1.6768292682926829 0 0 0 0
193 2 1 11 -1.6463414634146343 0 0 0 0
194 2 1 11 -1.6158536585365852 0 0 0 0
195 2 1 11 -1.5853658536585367 0 0 0 0
196 2 1 11 -1.5548780487804876 0 0 0 0
197 2 1 11 -1.524390243902439 0 0 0 0
198 2 1 11 -1.4939024390243905 0 0 0 0
199 2 1 11 -1.4634146341463414 0 0 0 0
200 2 1 11 -1.4329268292682928 0 0 0 0
201 2 1 11 -1.4024390243902438 0 0 0 0
202 2 1 11 -1.3719512195121952 0 0 0 0
203 2 1 11 -1.3414634146341462 0 0 0 0
204 2 1 11 -1.3109756097560976 0 0 0 0
205 2 1 11 -1.280487804878049 0 0 0 0
206 2 1 11 -1.25 0 0 0 0
207 2 1 11 -1.2195121951219514 0 0 0 0
208 2 1 11 -1.1890243902439024 0 0 0 0
209 2 1 11 -1.1585365853658538 0 0 0 0
210 2 1 11 -1.1280487804878048 0 0 0 0
211 2 1 11 -1.0975609756097562 0 0 0 0
212 2 1 11 -1.0670731707317076 0 0 0 0
213 2 1 11 -1.0365853658536586 0 0 0 0
214 2 1 11 -1.00609756097561 0 0 0 0
215 2 1 11 -0.975609756097561 0 0 0 0
216 2 1 11 -0.9451219512195124 0 0 0 0
217 2 1 11 -0.9146341463414633 0 0 0 0
218 2 1 11 -0.8841463414634148 0 0 0 0
219 2 1 11 -0.8536585365853657 0 0 0 0
220 2 1 11 -0.8231707317073171 0 0 0 0
221 2 1 11 -0.7926829268292686 0 0 0 0
222 2 1 11 -0.7621951219512195 0 0 0 0
223 2 1 11 -0.7317073170731709 0 0 0 0
224 2 1 11 -0.7012195121951219 0 0 0 0
225 2 1 11 -0.6707317073170733 0 0 0 0
226 2 1 11 -0.6402439024390243 0 0 0 0
227 2 1 11 -0.6097560975609757 0 0 0 0
228 2 1 11 -0.5792682926829267 0 0 0 0
229 2 1 11 -0.5487804878048781 0 0 0 0
230 2 1 11 -0.5182926829268295 0 0 0 0
231 2 1 11 -0.4878048780487805 0 0 0 0
232 2 1 11 -0.4573170731707319 0 0 0 0
233 2 1 11 -0.42682926829268286 0 0 0 0
234 2 1 11 -0.3963414634146343 0 0 0 0
235 2 1 11 -0.36585365853658525 0 0 0 0
236 2 1 11 -0.33536585365853666 0 0 0 0
237 2 1 11 -0.3048780487804881 0 0 0 0
238 2 1 11 -0.27439024390243905 0 0 0 0
239 2 1 11 -0.24390243902439046 0 0 0 0
240 2 1 11 -0.21341463414634143 0 0 0 0
241 2 1 11 -0.18292682926829285 0 0 0 0
242 2 1 11 -0.15243902439024382 0 0 0 0
243 2 1 11 -0.12195121951219523 0 0 0 0
244 2 1 11 -0.09146341463414664 0 0 0 0
245 2 10 0 -0.060975609756097615 0 0 0 0
246 2 2 0 -0.03048780487804903 0 0 0 0
247 2 2 0 0.0 0 0 0 0
248 2 2 0 0.030487804878048586 0 0 0 0
249 2 2 0 0.060975609756097615 0 0 0 0
250 2 2 0 0.0914634146341462 0 0 0 0
251 2 1 11 0.12195121951219523 0 0 0 0
252 2 1 11 0.15243902439024382 0 0 0 0
253 2 1 11 0.1829268292682924 0 0 0 0
254 2 1 11 0.21341463414634143 0 0 0 0
255 2 1 11 0.24390243902439002 0 0 0 0
256 2 1 11 0.27439024390243905 0 0 0 0
257 2 1 11 0.30487804878048763 0 0 0 0
258 2 1 11 0.3353658536585362 0 0 0 0
259 2 1 11 0.3658536585365857 0 0 0 0
260 2 1 11 0.3963414634146343 0 0 0 0
261 2 1 11 0.42682926829268286 0 0 0 0
262 2 1 11 0.45731707317073145 0 0 0 0
263 2 1 11 0.48780487804878003 0 0 0 0
264 2 1 11 0.5182926829268295 0 0 0 0
265 2 1 11 0.5487804878048781 0 0 0 0
266 2 1 11 0.5792682926829267 0 0 0 0
267 2 1 11 0.6097560975609753 0 0 0 0
268 2 1 11 0.6402439024390247 0 0 0 0
269 2 1 11 0.6707317073170733 0 0 0 0
270 2 1 11 0.7012195121951219 0 0 0 0
271 2 1 11 0.7317073170731705 0 0 0 0
272 2 1 11 0.7621951219512191 0 0 0 0
273 2 1 11 0.7926829268292686 0 0 0 0
274 2 1 11 0.8231707317073171 0 0 0 0
275 2 1 11 0.8536585365853657 0 0 0 0
276 2 1 11 0.8841463414634143 0 0 0 0
277 2 1 11 0.9146341463414629 0 0 0 0
278 2 1 11 0.9451219512195124 0 0 0 0
279 2 1 11 0.975609756097561 0 0 0 0
280 2 1 11 1.0060975609756095 0 0 0 0
281 2 1 11 1.0365853658536581 0 0 0 0
282 2 1 11 1.0670731707317076 0 0 0 0
283 2 1 11 1.0975609756097562 0 0 0 0
284 2 1 11 1.1280487804878048 0 0 0 0
285 2 1 11 1.1585365853658534 0 0 0 0
286 2 1 11 1.189024390243902 0 0 0 0
287 2 1 11 1.2195121951219514 0 0 0 0
288 2 1 11 1.25 0 0 0 0
289 2 1 11 1.2804878048780486 0 0 0 0
290 2 1 11 1.3109756097560972 0 0 0 0
291 2 1 11 1.3414634146341466 0 0 0 0
292 2 1 11 1.3719512195121952 0 0 0 0
293 2 1 11 1.4024390243902438 0 0 0 0
294 2 1 11 1.4329268292682924 0 0 0 0
295 2 1 11 1.463414634146341 0 0 0 0
296 2 1 11 1.4939024390243905 0 0 0 0
297 2 1 11 1.524390243902439 0 0 0 0
298 2 1 11 1.5548780487804876 0 0 0 0
299 2 1 11 1.5853658536585362 0 0 0 0
300 2 1 11 1.6158536585365848 0 0 0 0
301 2 1 11 1.6463414634146343 0 0 0 0
302 2 1 11 1.6768292682926829 0 0 0 0
303 2 1 11 1.7073170731707314 0 0 0 0
304 2 1 11 1.73780487804878 0 0 0 0
305 2 1 11 1.7682926829268295 0 0 0 0
306 2 1 11 1.798780487804878 0 0 0 0
307 2 1 11 1.8292682926829267 0 0 0 0
308 2 1 11 1.8597560975609753 0 0 0 0
309 2 1 11 1.8902439024390238 0 0 0 0
310 2 1 11 1.9207317073170733 0 0 0 0
311 2 1 11 1.951219512195122 0 0 0 0
312 2 1 11 1.9817073170731705 0 0 0 0
313 2 1 11 2.012195121951219 0 0 0 0
314 2 1 11 2.0426829268292686 0 0 0 0
315 2 1 11 2.073170731707317 0 0 0 0
316 2 1 11 2.1036585365853657 0 0 0 0
317 2 1 11 2.1341463414634143 0 0 0 0
318 2 1 11 2.164634146341463 0 0 0 0
319 2 1 11 2.1951219512195124 0 0 0 0
320 2 1 11 2.225609756097561 0 0 0 0
321 2 1 11 2.2560975609756095 0 0 0 0
322 2 1 11 2.286585365853658 0 0 0 0
323 2 1 11 2.3170731707317076 0 0 0 0
324 2 1 11 2.347560975609756 0 0 0 0
325 2 1 11 2.3780487804878048 0 0 0 0
326 2 1 11 2.4085365853658534 0 0 0 0
327 2 1 11 2.439024390243902 0 0 0 0
328 2 1 11 2.4695121951219514 0 0 0 0
329 2 1 11 2.5 0 0 0 0
330 2 1 11 2.5304878048780486 0 0 0 0
331 2 1 11 2.560975609756097 0 0 0 0
332 2 1 11 2.5914634146341466 0 0 0 0
333 2 1 11 2.6219512195121952 0 0 0 0
334 2 1 11 2.652439024390244 0 0 0 0
335 2 1 11 2.6829268292682924 0 0 0 0
336 2 1 11 2.713414634146341 0 0 0 0
337 2 1 11 2.7439024390243905 0 0 0 0
338 2 1 11 2.774390243902439 0 0 0 0
339 2 1 11 2.8048780487804876 0 0 0 0
340 2 1 11 2.835365853658536 0 0 0 0
341 2 1 11 2.865853658536585 0 0 0 0
342 2 1 11 2.8963414634146343 0 0 0 0
343 2 1 11 2.926829268292683 0 0 0 0
344 2 1 11 2.9573170731707314 0 0 0 0
345 2 1 11 2.98780487804878 0 0 0 0
346 2 1 11 3.0182926829268295 0 0 0 0
347 2 1 11 3.048780487804878 0 0 0 0
348 2 1 11 3.0792682926829267 0 0 0 0
349 2 1 11 3.1097560975609753 0 0 0 0
350 2 1 11 3.140243902439024 0 0 0 0
351 2 1 11 3.1707317073170733 0 0 0 0
352 2 1 11 3.201219512195122 0 0 0 0
353 2 1 11 3.2317073170731705 0 0 0 0
354 2 1 11 3.262195121951219 0 0 0 0
355 2 1 11 3.2926829268292686 0 0 0 0
356 2 1 11 3.323170731707317 0 0 0 0
357 2 1 11 3.3536585365853657 0 0 0 0
358 2 1 11 3.3841463414634143 0 0 0 0
359 2 1 11 3.414634146341463 0 0 0 0
360 2 1 11 3.4451219512195124 0 0 0 0
361 2 1 11 3.475609756097561 0 0 0 0
362 2 1 11 3.5060975609756095 0 0 0 0
363 2 1 11 3.536585365853658 0 0 0 0
364 2 1 11 3.5670731707317067 0 0 0 0
365 2 1 11 3.597560975609756 0 0 0 0
366 2 1 11 3.6280487804878048 0 0 0 0
367 2 1 11 3.6585365853658534 0 0 0 0
368 2 1 11 3.689024390243902 0 0 0 0
369 2 1 11 3.7195121951219514 0 0 0 0
370 2 1 11 3.75 0 0 0 0
371 3 4 9.043838 -1.960267 -4.558958 0 0 0
372 4 4 -3.108329 -5.175425 -3.329624 0 0 0
373 5 4 5.228445 7.076733 2.710907 0 0 0
374 6 4 -2.233632 6.277353 -1.433908 0 0 0
375 7 4 -9.243206 -4.574622 4.879218 0 0 0
376 8 4 -4.26758 -7.30042 2.999743 0 0 0
377 9 4 8.942089 -3.450644 -1.640147 0 0 0
378 10 4 -1.028131 -4.555473 -1.540152 0 0 0
379 11 4 0.288072 3.928683 1.688635 0 0 0
380 12 4 -3.065939 -4.527797 -1.124555 0 0 0
381 13 4 4.608482 4.561502 -4.161478 0 0 0
382 14 4 -2.376641 -5.151353 -2.570082 0 0 0
383 15 4 -3.626967 4.678066 -1.465425 0 0 0
384 16 4 6.153415 6.976641 2.770218 0 0 0
385 17 4 8.307551 -3.543565 -3.255493 0 0 0
386 18 4 5.719227 2.395859 3.01947 0 0 0
387 19 4 3.269406 -2.803408 2.684566 0 0 0
388 20 4 4.309343 -5.107025 1.484642 0 0 0
389 21 4 4.123759 6.737709 -2.409519 0 0 0
390 22 4 7.93209 2.25017 3.683317 0 0 0
391 23 4 10.612344 2.088296 -3.564151 0 0 0
392 24 4 3.373149 -0.985223 0.524499 0 0 0
393 25 4 2.589046 2.561161 -2.916148 0 0 0
394 26 4 0.173625 -3.228983 4.810656 0 0 0
395 27 4 -7.094952 -0.644356 3.295621 0 0 0
396 28 4 10.779949 -4.169976 4.492209 0 0 0
397 29 4 3.645686 -6.104982 3.137023 0 0 0
398 30 4 -6.080792 6.362409 -3.573648 0 0 0
399 31 4 0.949862 -5.927165 2.704999 0 0 0
400 32 4 -7.205954 5.731114 2.055453 0 0 0
401 33 4 -3.002313 1.357011 -2.983152 0 0 0
402 34 4 -6.680294 5.875607 -1.477043 0 0 0
403 35 4 -3.901761 -2.580968 2.057066 0 0 0
404 36 4 4.865806 -2.826522 4.013882 0 0 0
405 37 4 5.794826 5.957554 -4.761547 0 0 0
406 38 4 -1.395239 3.671645 0.518444 0 0 0
407 39 4 5.10324 -4.327001 -4.519588 0 0 0
408 40 4 9.103028 4.149533 -4.791767 0 0 0
409 41 4 -10.990311 0.299674 3.477291 0 0 0
410 42 4 9.170122 2.292575 -2.158536 0 0 0
411 43 4 -0.259477 5.411389 -1.907199 0 0 0
412 44 4 -7.095321 6.243136 -4.04686 0 0 0
413 45 4 -4.144754 4.535216 2.541921 0 0 0
414 46 4 -1.324555 0.733522 -1.188217 0 0 0
415 47 4 -8.369541 -1.171868 4.860369 0 0 0
416 48 4 -3.126344 -3.171021 -2.855968 0 0 0
417 49 4 -8.23082 -7.266556 3.747336 0 0 0
418 50 4 -9.496129 4.412593 -0.548382 0 0 0
419 51 4 -10.476575 4.323539 2.323178 0 0 0
420 52 4 3.912357 -1.464861 -4.195654 0 0 0
421 53 4 -2.78604 -5.662819 2.798099 0 0 0
422 54 4 7.808149 1.953408 1.499411 0 0 0
423 55 4 -10.325382 -5.603388 2.711246 0 0 0
424 56 4 -10.081656 4.419692 1.661056 0 0 0
425 57 4 -7.321578 5.178116 3.319493 0 0 0
426 58 4 -9.011085 4.827095 4.334744 0 0 0
427 59 4 -8.669493 2.186226 -4.569018 0 0 0
428 60 4 -2.98267 6.372737 2.923316 0 0 0
429 61 4 -6.694387 -1.281353 4.124928 0 0 0
430 62 4 5.97877 -4.84597 2.115439 0 0 0
431 63 4 7.60396 -5.524052 -3.764447 0 0 0
432 64 4 2.721449 -6.589118 -0.9136 0 0 0
433 65 4 9.94431 4.946773 -2.656917 0 0 0
434 66 4 -0.493931 5.437312 -3.111151 0 0 0
435 67 4 4.627413 -1.041225 3.944189 0 0 0
436 68 4 -5.722392 3.414468 -4.680064 0 0 0
437 69 4 7.819801 3.914252 -1.767566 0 0 0
438 70 4 -8.364489 7.141259 0.894095 0 0 0
439 71 4 -1.82223 2.720566 4.929038 0 0 0
440 72 4 -2.588893 4.619288 -3.27973 0 0 0
441 73 4 -9.897064 0.118167 -4.048877 0 0 0
442 74 4 4.221203 -3.103391 -4.939133 0 0 0
443 75 4 -3.374239 -2.413078 0.939263 0 0 0
444 76 4 0.122386 -5.150512 -1.390332 0 0 0
445 77 4 -8.82234 -0.574789 -2.115347 0 0 0
446 78 4 8.735045 -6.662172 -2.886856 0 0 0
447 79 4 9.704857 2.848655 4.654975 0 0 0
448 80 4 -7.469146 -7.14965 3.625674 0 0 0
449 81 4 10.359768 -4.033606 -0.713731 0 0 0
450 82 4 10.035916 0.62364 4.042324 0 0 0
451 83 4 -10.688142 6.971229 0.79302 0 0 0
452 84 4 0.895869 -6.467416 3.817205 0 0 0
453 85 4 6.959553 1.022168 -4.909898 0 0 0
454 86 4 -6.982745 0.564569 2.779239 0 0 0
455 87 4 5.305586 -5.093285 2.952609 0 0 0
456 88 4 10.597473 1.151605 -3.794201 0 0 0
457 89 4 -3.312635 -7.316934 -0.649746 0 0 0
458 90 4 -10.843313 -3.812734 0.65646 0 0 0
459 91 4 0.185422 4.36897 3.530943 0 0 0
460 92 4 3.90469 4.460865 -4.685951 0 0 0
461 93 4 7.662511 6.059382 -3.448738 0 0 0
462 94 4 6.411201 -1.479883 1.789391 0 0 0
463 95 4 -1.255193 -0.048769 0.949682 0 0 0
464 96 4 7.508825 -2.587303 2.503824 0 0 0
465 97 4 10.098693 5.258887 4.732041 0 0 0
466 98 4 0.943897 -3.105043 0.436647 0 0 0
467 99 4 1.983372 1.613184 3.010334 0 0 0
468 100 4 6.195235 1.652671 3.893321 0 0 0
469 101 4 2.875724 -0.341284 2.051002 0 0 0
470 102 4 1.153424 -7.093226 4.561155 0 0 0
471 103 4 -0.266538 6.816181 4.195782 0 0 0
472 104 4 3.851612 -7.095351 -2.303439 0 0 0
473 105 4 3.201031 -7.430653 3.822789 0 0 0
474 106 4 2.289961 -7.023917 -1.613926 0 0 0
475 107 4 7.158847 5.207376 3.677561 0 0 0
476 108 4 -3.364239 3.721009 3.120161 0 0 0
477 109 4 5.719334 -7.13482 -0.931806 0 0 0
478 110 4 5.85681 -2.084068 4.695744 0 0 0
479 111 4 4.983628 -3.291844 1.042867 0 0 0
480 112 4 -5.722992 3.316443 -1.010438 0 0 0
481 113 4 -1.463975 -4.594198 -3.538351 0 0 0
482 114 4 0.512634 -5.808066 -0.803623 0 0 0
483 115 4 -8.168016 0.558248 1.780407 0 0 0
484 116 4 -9.146448 6.575137 4.447552 0 0 0
485 117 4 -9.284059 -5.993917 -1.127912 0 0 0
486 118 4 -9.881053 -4.355843 -1.628494 0 0 0
487 119 4 -1.305558 0.729515 -1.185069 0 0 0
488 120 4 0.166528 -3.213686 -0.757202 0 0 0
489 121 4 -4.672007 -5.20656 -2.861154 0 0 0
490 122 4 -7.605599 1.086232 -1.986508 0 0 0
491 123 4 0.284146 0.206185 -1.128462 0 0 0
492 124 4 -7.508716 2.121099 -2.964805 0 0 0
493 125 4 -4.763161 -4.848048 4.542486 0 0 0
494 126 4 -8.25512 -7.286014 4.095204 0 0 0
495 127 4 -9.893347 1.913247 1.434466 0 0 0
496 128 4 9.817788 -7.488876 3.79894 0 0 0
497 129 4 -4.923413 -6.245712 1.80287 0 0 0
498 130 4 7.950299 0.67043 -3.387464 0 0 0
499 131 4 4.635693 6.947348 0.579876 0 0 0
500 132 4 -7.099049 3.831729 -4.936652 0 0 0
501 133 4 0.733775 1.808448 1.467563 0 0 0
502 134 4 -7.276639 2.254251 3.757721 0 0 0
503 135 4 -9.354191 3.678349 3.437635 0 0 0
504 136 4 9.075416 -6.557142 -2.971569 0 0 0
505 137 4 8.33551 -0.7687 1.237849 0 0 0
506 138 4 -5.719742 -2.259539 0.33337 0 0 0
507 139 4 -10.12678 5.062467 -2.567337 0 0 0
508 140 4 -4.102733 4.199245 -2.605014 0 0 0
509 141 4 2.393812 5.994334 1.995467 0 0 0
510 142 4 5.902915 -4.31576 0.457831 0 0 0
511 143 4 -2.88643 0.038346 -0.966849 0 0 0
512 144 4 -9.891848 3.059652 -0.805372 0 0 0
513 145 4 -10.226001 1.003021 -1.146799 0 0 0
514 146 4 -1.769653 0.94876 -3.312194 0 0 0
515 147 4 5.779282 -1.546391 -2.130771 0 0 0
516 148 4 4.913835 -3.810298 -1.869705 0 0 0
517 149 4 -6.526441 -1.355388 4.223098 0 0 0
518 150 4 -2.394933 6.782754 -4.827068 0 0 0
519 151 4 -0.049626 3.323651 3.954156 0 0 0
520 152 4 1.978175 -1.214776 1.46024 0 0 0
521 153 4 5.177834 -0.188793 1.635537 0 0 0
522 154 4 -2.876641 2.811736 0.179488 0 0 0
523 155 4 3.608897 -0.918002 -0.588367 0 0 0
524 156 4 -8.424639 2.195187 -2.256964 0 0 0
525 157 4 -0.352821 -3.714061 2.765828 0 0 0
526 158 4 -10.056211 -2.136306 -2.868205 0 0 0
527 159 4 -8.303577 -0.686085 -4.28187 0 0 0
528 160 4 7.596398 5.171925 -0.706668 0 0 0
529 161 4 -1.041009 -5.470771 -2.339899 0 0 0
530 162 4 -5.89697 -3.315575 4.628722 0 0 0
531 163 4 -1.607896 -5.606929 1.183537 0 0 0
532 164 4 -9.544203 7.217085 2.76076 0 0 0
533 165 4 2.831422 0.647159 1.420258 0 0 0
534 166 4 -10.766494 1.083794 0.460185 0 0 0
535 167 4 5.939098 -1.930213 1.774328 0 0 0
536 168 4 4.869128 3.428839 0.51249 0 0 0
537 169 4 -0.547588 5.852129 -0.95178 0 0 0
538 170 4 -2.084106 -2.103891 -3.281073 0 0 0
539 171 4 2.957984 3.405657 -2.514267 0 0 0
540 172 4 3.518772 -0.603102 2.742521 0 0 0
541 173 4 1.344196 3.12735 2.293532 0 0 0
542 174 4 10.884235 0.857979 4.346639 0 0 0
543 175 4 -6.036465 -2.267432 -2.342036 0 0 0
544 176 4 -5.21131 0.262598 -2.319658 0 0 0
545 177 4 3.238033 0.185299 -3.695818 0 0 0
546 178 4 2.929811 0.183333 -1.379418 0 0 0
547 179 4 -1.812116 7.468836 -1.051301 0 0 0
548 180 4 -9.066045 -1.44638 0.440627 0 0 0
549 181 4 -8.681781 -0.654744 2.351486 0 0 0
550 182 4 8.441418 -0.31004 3.047924 0 0 0
551 183 4 4.820856 -1.101572 -4.318581 0 0 0
552 184 4 -5.999722 1.568325 1.838709 0 0 0
553 185 4 6.510101 -4.399381 -3.901684 0 0 0
554 186 4 0.793589 6.177346 2.116552 0 0 0
555 187 4 2.853342 -6.49523 -3.877719 0 0 0
556 188 4 10.334988 -3.303643 4.740588 0 0 0
557 189 4 8.022509 -1.291853 4.217087 0 0 0
558 190 4 3.007329 -5.274657 -3.650552 0 0 0
559 191 4 9.615297 -6.868602 0.537506 0 0 0
560 192 4 -4.649242 -5.683085 2.4505 0 0 0
561 193 4 3.887359 -7.459356 -4.227637 0 0 0
562 194 4 -0.091051 -4.470725 -3.924322 0 0 0
563 195 4 3.036506 0.434882 2.02646 0 0 0
564 196 4 -3.763984 2.385855 4.56445 0 0 0
565 197 4 4.150265 6.42265 3.735059 0 0 0
566 198 4 -8.273177 -0.796822 -4.639757 0 0 0
567 199 4 -0.670025 -3.602971 1.777938 0 0 0
568 200 4 -10.040727 5.046205 -4.169771 0 0 0
569 201 4 -5.189776 -6.389833 1.842336 0 0 0
570 202 4 4.156976 -0.991507 -2.744174 0 0 0
571 203 4 9.040247 5.401304 -1.168607 0 0 0
572 204 4 9.006413 1.870027 1.578426 0 0 0
573 205 4 4.659986 -0.176084 -1.436913 0 0 0
574 206 4 10.221666 4.479362 2.205199 0 0 0
575 207 4 -8.981742 0.463229 1.22589 0 0 0
576 208 4 2.713026 -1.969188 -4.572474 0 0 0
577 209 4 -6.228772 7.080319 0.026975 0 0 0
578 210 4 -1.335651 -3.026496 1.879114 0 0 0
579 211 4 8.642561 2.050301 4.958837 0 0 0
580 212 4 -8.790131 0.47638 2.755732 0 0 0
581 213 4 5.210609 5.35041 2.098824 0 0 0
582 214 4 4.853714 4.899076 -0.576865 0 0 0
583 215 4 -8.571775 -2.278433 2.194921 0 0 0
584 216 4 -7.413517 -4.882103 4.499626 0 0 0
585 217 4 10.17681 -5.334928 -2.531471 0 0 0
586 218 4 -1.155595 0.760917 2.470814 0 0 0
587 219 4 6.962102 -2.655882 0.972648 0 0 0
588 220 4 -0.483719 -1.669832 -2.746253 0 0 0
589 221 4 7.451456 -3.542341 -0.083269 0 0 0
590 222 4 7.469239 6.426943 0.828332 0 0 0
591 223 4 5.114174 -3.367135 4.402739 0 0 0
592 224 4 -4.690858 6.717768 3.337995 0 0 0
593 225 4 -3.523174 -1.046865 4.769909 0 0 0
594 226 4 2.151698 6.907469 2.549825 0 0 0
595 227 4 1.966309 -1.000122 -0.822996 0 0 0
596 228 4 -6.466357 -5.408564 1.625566 0 0 0
597 229 4 -1.816967 -7.489544 -2.648993 0 0 0
598 230 4 9.286273 -4.033507 -2.491354 0 0 0
599 231 4 -1.505138 -3.151887 2.591801 0 0 0
600 232 4 -0.659123 2.711371 4.428664 0 0 0
601 233 4 -6.126769 -3.643179 -0.28486 0 0 0
602 234 4 10.617556 -6.849576 4.831765 0 0 0
603 235 4 9.038001 -1.48384 -4.659788 0 0 0
604 236 4 10.95703 3.608248 -3.339431 0 0 0
605 237 4 6.365193 -2.209839 -4.634969 0 0 0
606 238 4 -3.792532 0.177665 1.888 0 0 0
607 239 4 0.056208 5.370022 -4.320618 0 0 0
608 240 4 -3.528906 -1.545482 2.723513 0 0 0
609 241 4 1.714166 3.130745 -3.509847 0 0 0
610 242 4 -9.970301 2.026757 2.916616 0 0 0
611 243 4 -6.332131 7.162431 4.783752 0 0 0
612 244 4 7.365274 -2.527 -4.672579 0 0 0
613 245 4 10.453813 -4.704264 3.424365 0 0 0
614 246 4 4.786892 4.492525 1.957296 0 0 0
615 247 4 -9.060118 6.511968 -4.336371 0 0 0
616 248 4 1.544953 3.162766 -4.53579 0 0 0
617 249 4 9.046217 0.302133 4.197316 0 0 0
618 250 4 -0.933674 -2.71764 3.971422 0 0 0
619 251 4 -10.700717 -3.817458 4.241939 0 0 0
620 252 4 4.631542 1.119879 0.679374 0 0 0
621 253 4 0.975325 -3.034372 2.578617 0 0 0
622 254 4 -7.95896 -6.841701 4.111798 0 0 0
623 255 4 -6.714324 -7.255144 -0.865836 0 0 0
624 256 4 9.230865 1.639457 0.56387 0 0 0
625 257 4 -5.584581 6.487502 -1.823558 0 0 0
626 258 4 7.688457 2.672694 0.680187 0 0 0
627 259 4 5.498034 6.357024 0.059128 0 0 0
628 260 4 -7.327483 5.046606 -3.546868 0 0 0
629 261 4 7.122595 -4.0212 -0.182636 0 0 0
630 262 4 -2.266301 3.184406 1.567534 0 0 0
631 263 4 -0.414021 -5.534997 -2.946028 0 0 0
632 264 4 9.164927 -5.412721 3.290128 0 0 0
633 265 4 -5.951849 -3.239689 -0.319318 0 0 0
634 266 4 0.577361 -3.481188 -0.581376 0 0 0
635 267 4 8.513055 -6.694125 -4.341095 0 0 0
636 268 4 2.233019 -1.588755 1.076217 0 0 0
637 269 4 6.831138 5.052723 3.567143 0 0 0
638 270 4 6.755581 0.448509 -4.258669 0 0 0
639 271 4 -0.51464 1.455007 -3.503362 0 0 0
640 272 4 7.026833 1.696414 1.779453 0 0 0
641 273 4 6.810249 -5.983749 4.470311 0 0 0
642 274 4 3.280364 4.033053 0.586172 0 0 0
643 275 4 2.127103 5.438815 -0.918782 0 0 0
644 276 4 -8.15231 -7.416273 1.226289 0 0 0
645 277 4 1.823222 0.62616 -0.120925 0 0 0
646 278 4 9.708937 -4.428377 4.42679 0 0 0
647 279 4 3.138788 0.502025 -2.672385 0 0 0
648 280 4 5.849191 -1.88993 2.157868 0 0 0
649 281 4 8.723349 -2.583272 2.29275 0 0 0
650 282 4 -1.731401 7.498972 3.600012 0 0 0
651 283 4 -0.783075 6.313711 0.05484 0 0 0
652 284 4 -6.799568 7.117018 2.169488 0 0 0
653 285 4 7.536604 4.780752 -0.3543 0 0 0
654 286 4 3.312802 1.933609 -2.594087 0 0 0
655 287 4 -2.597013 4.955657 4.307294 0 0 0
656 288 4 6.917931 -1.028589 -1.896751 0 0 0
657 289 4 -7.396478 -3.469185 -2.30607 0 0 0
658 290 4 -2.699926 0.884326 -2.442396 0 0 0
659 291 4 4.335781 2.678522 1.480082 0 0 0
660 292 4 -8.836585 4.546282 0.748892 0 0 0
661 293 4 7.367968 -5.119782 3.31874 0 0 0
662 294 4 -1.071372 -5.274406 3.322887 0 0 0
663 295 4 -1.010734 -2.17295 -1.085974 0 0 0
664 296 4 -2.648877 0.795676 -3.915827 0 0 0
665 297 4 0.259174 1.802923 -2.860387 0 0 0
666 298 4 8.906456 6.31705 4.958266 0 0 0
667 299 4 6.238333 -5.037986 -4.080286 0 0 0
668 300 4 -2.023647 4.962363 0.999807 0 0 0
669 301 4 4.398133 -6.027683 -4.397152 0 0 0
670 302 4 8.513429 4.122254 1.513538 0 0 0
671 303 4 -9.039872 -5.031729 2.11013 0 0 0
672 304 4 1.446698 1.800622 -3.589518 0 0 0
673 305 4 9.108396 -3.216262 4.501346 0 0 0
674 306 4 -9.187361 5.947067 -0.011196 0 0 0
675 307 4 4.632604 -7.426892 -0.354719 0 0 0
676 308 4 6.3292 3.218745 2.557861 0 0 0
677 309 4 2.805607 -2.260976 -0.588233 0 0 0
678 310 4 5.683055 6.018451 -3.960227 0 0 0
679 311 4 10.71407 -4.512953 1.681407 0 0 0
680 312 4 -3.140832 -1.678462 -4.117987 0 0 0
681 313 4 -2.298841 -4.74357 0.31108 0 0 0
682 314 4 -2.423017 -1.250796 -0.290418 0 0 0
683 315 4 -9.221709 -5.729663 4.071329 0 0 0
684 316 4 0.660323 4.352313 4.069369 0 0 0
685 317 4 -8.852299 -6.285872 -0.83697 0 0 0
686 318 4 0.762939 0.111723 -2.478851 0 0 0
687 319 4 -9.547314 -5.616619 -4.385722 0 0 0
688 320 4 -1.645419 3.215636 1.243211 0 0 0
689 321 4 6.225037 -5.983879 2.05847 0 0 0
690 322 4 -5.594151 4.378586 -1.804903 0 0 0
691 323 4 -8.719515 -2.633769 1.453666 0 0 0
692 324 4 -10.393744 3.519517 -4.559129 0 0 0
693 325 4 7.154581 -1.869874 0.380224 0 0 0
694 326 4 -3.661342 -3.853793 -3.394332 0 0 0
695 327 4 -0.922536 1.164163 0.579596 0 0 0
696 328 4 9.131974 -2.771172 -4.856154 0 0 0
697 329 4 -1.663565 3.523803 -1.986271 0 0 0
698 330 4 -0.617579 -3.385296 -4.545256 0 0 0
699 331 4 -9.388536 -6.582527 3.390413 0 0 0
700 332 4 4.165182 -3.404755 -4.680527 0 0 0
701 333 4 -7.203443 0.584431 -1.334689 0 0 0
702 334 4 -7.438558 6.802695 4.817903 0 0 0
703 335 4 3.293679 5.709835 -3.172907 0 0 0
704 336 4 10.887307 -7.249763 -0.221048 0 0 0
705 337 4 -9.053548 -4.631115 -1.867792 0 0 0
706 338 4 -2.47077 -5.123074 0.831382 0 0 0
707 339 4 6.143121 -3.385989 0.915003 0 0 0
708 340 4 -7.577103 -1.797268 -3.233398 0 0 0
709 341 4 3.388484 -0.841723 1.388258 0 0 0
710 342 4 -2.35127 -6.059396 2.085792 0 0 0
711 343 4 5.683435 -6.441243 -2.698835 0 0 0
712 344 4 6.166207 2.694106 -4.782164 0 0 0
713 345 4 3.012735 2.946487 1.236395 0 0 0
714 346 4 -8.296235 4.92027 4.360554 0 0 0
715 347 4 1.667336 1.216761 2.729535 0 0 0
716 348 4 3.863187 -3.984886 -1.52561 0 0 0
717 349 4 0.25222 -1.108581 2.426221 0 0 0
718 350 4 3.465091 -2.919053 -3.299561 0 0 0
719 351 4 -7.425528 5.023301 -4.251704 0 0 0
720 352 4 7.874733 0.677992 1.37971 0 0 0
721 353 4 3.517034 -1.143988 0.241436 0 0 0
722 354 4 7.019111 -1.435133 -2.263226 0 0 0
723 355 4 -10.092723 -3.347122 -3.568665 0 0 0
724 356 4 -6.546863 3.81305 2.985471 0 0 0
725 357 4 -1.311943 -2.174276 2.15127 0 0 0
726 358 4 1.283024 1.774295 -0.573345 0 0 0
727 359 4 -4.406149 -3.643477 -2.855897 0 0 0
728 360 4 9.400013 -2.374441 -4.01368 0 0 0
729 361 4 -2.437367 7.480165 -3.882509 0 0 0
730 362 4 9.565484 -5.83348 1.936627 0 0 0
731 363 4 3.163109 1.56378 -0.586361 0 0 0
732 364 4 0.017235 -3.439099 -3.748552 0 0 0
733 365 4 -9.237059 5.435665 4.360444 0 0 0
734 366 4 0.284134 -1.427036 2.659437 0 0 0
735 367 4 -3.061436 5.198833 -3.259708 0 0 0
736 368 4 -0.465439 -1.124731 -4.571973 0 0 0
737 369 4 8.645889 4.203736 -3.338244 0 0 0
738 370 4 2.99394 -1.552026 4.552381 0 0 0
739 371 4 -1.871975 -5.792673 -4.67407 0 0 0
740 372 4 5.970883 6.062042 -2.182565 0 0 0
741 373 4 -10.968142 -0.784538 -3.354794 0 0 0
742 374 4 -0.555831 -4.855916 -1.131162 0 0 0
743 375 4 -9.434736 2.934565 3.153339 0 0 0
744 376 4 -7.582143 -1.883279 -1.211133 0 0 0
745 377 4 -1.666556 -7.18326 -0.791211 0 0 0
746 378 4 -0.864442 -4.947115 -4.697282 0 0 0
747 379 4 4.665726 3.844997 1.204123 0 0 0
748 380 4 -5.232718 -1.620034 -4.532675 0 0 0
749 381 4 -8.157841 6.515222 1.05847 0 0 0
750 382 4 3.708662 -1.937424 -3.072001 0 0 0
751 383 4 -10.202846 -5.372429 3.832654 0 0 0
752 384 4 -10.397585 -3.743044 -1.138538 0 0 0
753 385 4 0.589375 -2.773616 -3.363674 0 0 0
754 386 4 -1.599074 -1.864424 0.354695 0 0 0
755 387 4 -5.100794 -5.962952 1.141451 0 0 0
756 388 4 -8.669253 -1.509377 3.463128 0 0 0
757 389 4 4.72754 -6.121808 3.546551 0 0 0
758 390 4 -4.183075 -6.636527 1.309258 0 0 0
759 391 4 -10.549198 -7.438918 -1.15262 0 0 0
760 392 4 2.527295 0.286815 -2.855344 0 0 0
761 393 4 8.587995 4.621128 0.131324 0 0 0
762 394 4 1.181989 6.715895 -3.841574 0 0 0
763 395 4 -1.419822 -0.818135 2.84224 0 0 0
764 396 4 3.662684 4.302682 2.058194 0 0 0
765 397 4 2.082399 -1.392569 1.46593 0 0 0
766 398 4 5.286742 2.020049 2.700484 0 0 0
767 399 4 3.72417 -4.418648 -2.712148 0 0 0
768 400 4 -9.894576 6.273392 1.942611 0 0 0
769 401 4 -10.927797 -6.129434 -1.381451 0 0 0
770 402 4 -6.619842 2.823409 -1.512821 0 0 0
771 403 4 -3.620631 -6.330499 0.188763 0 0 0
772 404 4 9.033438 -2.297729 -2.618726 0 0 0
773 405 4 0.877777 -1.773979 4.374584 0 0 0
774 406 4 7.435315 4.744882 -1.507416 0 0 0
775 407 4 3.535567 1.658431 -3.314108 0 0 0
776 408 4 0.013798 -2.311933 0.781055 0 0 0
777 409 4 -6.710246 -6.374643 0.21794 0 0 0
778 410 4 4.726957 -4.818695 0.669251 0 0 0
779 411 4 1.544202 -1.420318 3.207788 0 0 0
780 412 4 3.78761 5.887167 -1.931807 0 0 0
781 413 4 2.093391 2.889026 -1.504471 0 0 0
782 414 4 -6.827737 -1.888961 -4.732225 0 0 0
783 415 4 -2.281761 -4.254713 -0.105133 0 0 0
784 416 4 -9.720383 1.29188 -3.482954 0 0 0
785 417 4 -8.795038 4.472965 0.977858 0 0 0
786 418 4 -8.151284 -3.067537 -2.867921 0 0 0
787 419 4 -0.61258 -4.727163 0.19084 0 0 0
788 420 4 -6.807832 3.116822 -2.232106 0 0 0
789 421 4 -3.961753 -7.412031 -1.951646 0 0 0
790 422 4 1.685921 -1.667978 3.204779 0 0 0
791 423 4 8.119088 5.511064 -2.271039 0 0 0
792 424 4 -10.961519 4.035551 2.487624 0 0 0
793 425 4 -7.292415 -2.845812 1.389164 0 0 0
794 426 4 4.174621 3.942137 1.004634 0 0 0
795 427 4 -5.893399 -1.821999 -4.640812 0 0 0
796 428 4 -3.728096 7.271944 -2.097502 0 0 0
797 429 4 0.08825 5.252846 -0.923923 0 0 0
798 430 4 -9.186773 -2.301165 -4.935407 0 0 0
799 431 4 -2.082275 -5.429339 0.352975 0 0 0
800 432 4 -0.719106 5.689407 0.160541 0 0 0
801 433 4 8.246486 1.040634 -1.09557 0 0 0
802 434 4 6.218053 -6.221194 0.196856 0 0 0
803 435 4 4.774496 -1.724449 1.833819 0 0 0
804 436 4 0.739187 3.278351 3.010205 0 0 0
805 437 4 -7.58631 -0.328856 2.802927 0 0 0
806 438 4 3.936445 4.730989 -0.071879 0 0 0
807 439 4 -10.974779 -1.768214 2.526113 0 0 0
808 440 4 1.575814 7.251073 3.391265 0 0 0
809 441 4 4.167192 -4.038419 -4.132556 0 0 0
810 442 4 -3.801625 -4.754957 0.985705 0 0 0
811 443 4 -10.83219 -0.683781 -0.505245 0 0 0
812 444 4 -5.356131 -7.341351 4.160581 0 0 0
813 445 4 -5.12709 -4.077436 3.222652 0 0 0
814 446 4 -8.448225 -2.942021 -4.610659 0 0 0
815 447 4 5.094555 1.52977 2.600987 0 0 0
816 448 4 1.538068 -5.923661 -4.289438 0 0 0
817 449 4 4.099376 5.51058 -4.870156 0 0 0
818 450 4 6.442469 2.280743 4.987851 0 0 0
819 451 4 10.997818 2.076086 1.958446 0 0 0
820 452 4 5.035387 0.072038 -3.100732 0 0 0
821 453 4 2.269458 -6.833591 0.923573 0 0 0
822 454 4 7.912209 -1.778415 -0.466575 0 0 0
823 455 4 -4.233441 -1.098924 -4.588097 0 0 0
824 456 4 2.837979 -6.452529 -0.757186 0 0 0
825 457 4 -7.750531 6.759317 4.3487 0 0 0
826 458 4 4.071687 -6.232841 1.501497 0 0 0
827 459 4 -9.145506 3.644387 -3.530634 0 0 0
828 460 4 3.439579 -0.865188 1.763824 0 0 0
829 461 4 -0.077523 -3.185793 1.722345 0 0 0
830 462 4 -4.862609 -7.063301 1.636651 0 0 0
831 463 4 9.661655 -0.596057 2.999624 0 0 0
832 464 4 9.423388 -2.004591 -3.713104 0 0 0
833 465 4 -10.581312 -0.19042 1.068623 0 0 0
834 466 4 -5.373667 3.21572 -2.293597 0 0 0
835 467 4 5.969451 0.932437 2.831821 0 0 0
836 468 4 -2.648678 2.033344 4.081787 0 0 0
837 469 4 -3.814099 -4.190191 1.978257 0 0 0
838 470 4 3.386227 7.314514 -4.162206 0 0 0
839 471 4 -6.076958 -6.247503 0.671931 0 0 0
840 472 4 -8.250631 5.771088 -0.222918 0 0 0
841 473 4 -6.944777 -2.529624 -1.08064 0 0 0
842 474 4 -5.343617 -6.868134 -2.920314 0 0 0
843 475 4 7.433133 -2.287411 -2.507194 0 0 0
844 476 4 7.363836 -3.494571 0.4758 0 0 0
845 477 4 5.770583 -5.804923 -3.837197 0 0 0
846 478 4 -5.431948 -2.041484 -2.210388 0 0 0
847 479 4 -10.243189 -7.313753 -0.235151 0 0 0
848 480 4 -1.098671 0.261137 -3.35183 0 0 0
849 481 4 6.449869 -6.093609 4.638407 0 0 0
850 482 4 -9.565608 1.582203 -3.007884 0 0 0
851 483 4 -10.257024 4.676777 1.778803 0 0 0
852 484 4 3.81618 0.872409 -4.430564 0 0 0
853 485 4 2.525515 -0.670941 4.377963 0 0 0
854 486 4 8.587083 -3.693246 -2.30848 0 0 0
855 487 4 2.416962 6.594222 -0.506168 0 0 0
856 488 4 7.702169 3.039835 -4.942941 0 0 0
857 489 4 -4.342577 -2.361266 3.439863 0 0 0
858 490 4 -7.004941 -4.692259 0.413312 0 0 0
859 491 4 6.716041 5.133346 -2.35338 0 0 0
860 492 4 10.299814 3.622364 -0.68617 0 0 0
861 493 4 -8.738071 -0.404181 4.770586 0 0 0
862 494 4 9.397831 1.06464 4.196389 0 0 0
863 495 4 -10.30409 0.630552 -1.844836 0 0 0
864 496 4 6.334115 0.394334 2.837946 0 0 0
865 497 4 10.913423 -3.46595 -4.745514 0 0 0
866 498 4 -9.612228 -5.258328 -2.22315 0 0 0
867 499 4 5.175807 3.667219 2.054328 0 0 0
868 500 4 4.890473 5.434826 -4.446426 0 0 0
869 501 4 3.225117 -4.447572 4.057662 0 0 0
870 502 4 1.261372 -6.430213 3.011116 0 0 0
871 503 4 -2.553081 3.088411 3.418494 0 0 0
872 504 4 -7.244014 -1.288808 -1.068719 0 0 0
873 505 4 4.661782 -6.855319 2.022801 0 0 0
874 506 4 -6.385418 -1.407221 0.444104 0 0 0
875 507 4 9.053523 -3.894893 -4.318125 0 0 0
876 508 4 10.147022 3.713553 1.636755 0 0 0
877 509 4 -0.572821 4.287664 3.792252 0 0 0
878 510 4 5.655969 -5.058757 -0.070691 0 0 0
879 511 4 7.04729 -5.859303 1.955225 0 0 0
880 512 4 3.696155 -7.365545 3.000787 0 0 0
881 513 4 -8.70787 -1.78948 4.480926 0 0 0
882 514 4 7.316534 -3.329293 -4.333314 0 0 0
883 515 4 0.744612 -6.817118 -0.411259 0 0 0
884 516 4 -7.308561 3.460504 4.828001 0 0 0
885 517 4 -4.906487 6.930074 4.202254 0 0 0
886 518 4 5.518012 -0.849016 1.682938 0 0 0
887 519 4 -3.356211 -2.802368 1.570603 0 0 0
888 520 4 7.533439 1.685278 -1.249012 0 0 0
889 521 4 -8.987366 6.250789 -4.976296 0 0 0
890 522 4 0.87582 -1.21979 3.967698 0 0 0
891 523 4 9.829896 6.266127 2.367328 0 0 0
892 524 4 -10.323706 -3.984841 1.373727 0 0 0
893 525 4 7.009334 5.251437 4.725789 0 0 0
894 526 4 -0.282955 -0.954152 -2.826929 0 0 0
895 527 4 -5.74648 3.796952 3.648984 0 0 0
896 528 4 3.748067 0.696432 -0.736233 0 0 0
897 529 4 -3.204764 -1.847066 -3.468991 0 0 0
898 530 4 -2.597547 5.160076 -1.462335 0 0 0
899 531 4 -9.979815 -7.226124 1.02408 0 0 0
900 532 4 -5.784709 5.874038 -1.954132 0 0 0
901 533 4 9.627397 -3.210036 1.213136 0 0 0
902 534 4 1.973995 -4.718178 0.153291 0 0 0
903 535 4 -2.771821 4.847495 0.859449 0 0 0
904 536 4 -6.93942 2.321384 -0.232605 0 0 0
905 537 4 10.186622 -5.965099 -3.746533 0 0 0
906 538 4 -8.581844 6.627533 3.301693 0 0 0
907 539 4 -6.450361 2.971361 -4.359719 0 0 0
908 540 4 10.168714 3.687029 -3.611627 0 0 0
909 541 4 4.349829 1.189533 -2.343277 0 0 0
910 542 4 -8.13494 -6.155121 -1.723459 0 0 0
911 543 4 -5.09165 3.438056 -4.357859 0 0 0
912 544 4 -7.975073 -5.133986 0.106699 0 0 0
913 545 4 4.723439 6.269118 -4.677182 0 0 0
914 546 4 -2.30047 -1.258806 3.668214 0 0 0
915 547 4 2.500346 3.044848 -4.476645 0 0 0
916 548 4 7.935439 1.077994 1.390065 0 0 0
917 549 4 -9.395341 -1.313177 -1.910137 0 0 0
918 550 4 -1.078352 -1.535292 2.30224 0 0 0
919 551 4 -4.393681 6.669052 -3.265306 0 0 0
920 552 4 -0.613536 6.423404 4.413744 0 0 0
921 553 8 -6.692216 6.82286 2.799737 0 0 0
922 554 8 -4.133095 -5.674757 0.194801 0 0 0
923 555 8 -9.146989 6.487452 -3.117984 0 0 0
924 556 8 -5.124214 2.889222 0.456371 0 0 0
925 557 8 -5.137136 -0.256766 3.602424 0 0 0
926 558 8 -9.475805 -4.269967 3.684688 0 0 0
927 559 8 -4.888593 -5.021155 2.817504 0 0 0
928 560 8 -3.034079 6.743943 -3.001935 0 0 0
929 561 8 -10.302604 -1.169801 -0.522115 0 0 0
930 562 8 -3.88118 1.558728 -0.466436 0 0 0
931 563 8 -4.740697 -1.383227 3.714687 0 0 0
932 564 8 -5.596787 -2.868797 -2.348989 0 0 0
933 565 8 -6.059391 7.145654 3.544851 0 0 0
934 566 8 -4.694668 2.347014 3.127738 0 0 0
935 567 8 -2.481785 -5.386832 2.173551 0 0 0
936 568 8 -9.501364 -3.421327 -4.858954 0 0 0
937 569 8 -5.204732 1.868934 1.147495 0 0 0
938 570 8 -1.570084 3.32177 -1.832815 0 0 0
939 571 8 -4.508293 -5.805329 2.889791 0 0 0
940 572 8 -10.721044 -6.275846 4.275761 0 0 0
941 573 8 -6.785581 -5.651335 -0.289785 0 0 0
942 574 8 -9.635138 5.383817 -3.524871 0 0 0
943 575 8 -10.209994 6.609694 -2.309193 0 0 0
944 576 8 -7.19835 3.090193 -0.426379 0 0 0
945 577 8 -3.71052 0.895064 -1.586821 0 0 0
946 578 8 -10.548385 -6.417027 -0.256587 0 0 0
947 579 8 -9.346204 2.555973 -0.541439 0 0 0
948 580 8 -7.763153 -1.455401 2.596197 0 0 0
949 581 8 -2.972596 -3.379492 -0.515679 0 0 0
950 582 8 -2.543342 0.465905 4.419516 0 0 0
951 583 8 -6.766072 2.520311 1.037724 0 0 0
952 584 8 -2.883454 -2.171248 0.607708 0 0 0
953 585 8 -9.719944 6.843926 -3.680787 0 0 0
954 586 8 -6.993607 -2.038414 2.748337 0 0 0
955 587 8 -6.523855 -3.549848 -4.230088 0 0 0
956 588 8 -0.905365 2.317216 -0.724877 0 0 0
957 589 8 -3.909173 2.652176 2.20722 0 0 0
958 590 8 -1.850688 4.333996 -1.453988 0 0 0
959 591 8 -5.988534 -4.333603 4.90981 0 0 0
960 592 8 -3.501326 -5.246214 -0.762305 0 0 0
961 593 8 -4.619012 2.353614 -2.470058 0 0 0
962 594 8 -6.773017 5.012333 -2.440199 0 0 0
963 595 8 -3.19442 2.701315 -1.155697 0 0 0
964 596 8 -3.274856 -6.531179 0.246693 0 0 0
965 597 8 -1.620716 0.762766 -2.390757 0 0 0
966 598 8 -4.528853 3.681659 -3.311176 0 0 0
967 599 8 -4.709814 1.316532 -2.271961 0 0 0
968 600 8 -6.994051 6.358348 -3.510531 0 0 0
969 601 8 -0.039915 -1.808305 -2.224499 0 0 0
970 602 8 -5.616506 3.964101 -2.35721 0 0 0
971 603 8 -9.342487 -4.735298 3.231103 0 0 0
972 604 8 -6.470808 4.015401 -3.425237 0 0 0
973 605 8 -7.644872 -3.209697 -4.03724 0 0 0
974 606 8 -0.900703 3.123303 -3.758716 0 0 0
975 607 8 -2.590447 -1.38241 4.118562 0 0 0
976 608 8 -5.174211 -2.418953 -4.465056 0 0 0
977 609 8 -10.945755 1.118946 -4.885418 0 0 0
978 610 8 -3.310957 0.702649 -0.186504 0 0 0
979 611 8 -1.64268 7.08639 0.084121 0 0 0
980 612 8 -4.215212 -4.45921 -2.498383 0 0 0
981 613 8 -9.11919 -2.205177 2.537631 0 0 0
982 614 8 -4.403318 -1.00463 -4.7057 0 0 0
983 615 8 -7.688832 -0.212171 -4.088935 0 0 0
984 616 8 -4.226033 -5.00527 -2.050985 0 0 0
985 617 8 -5.641851 -6.570668 -3.59851 0 0 0
986 618 8 -7.309153 -6.983368 -2.638518 0 0 0
987 619 8 -5.006671 -0.756231 -2.008613 0 0 0
988 620 8 -6.876958 2.020845 -2.585594 0 0 0
989 621 8 -6.906134 4.070715 0.181737 0 0 0
990 622 8 -0.479868 -5.246825 -1.632411 0 0 0
991 623 8 -4.266527 2.851497 2.636887 0 0 0
992 624 8 -2.971583 7.394301 -2.65199 0 0 0
993 625 8 -4.449407 -1.897432 1.69912 0 0 0
994 626 8 -8.242137 1.410898 -4.262952 0 0 0
995 627 8 -8.562224 5.456748 -4.815399 0 0 0
996 628 8 -6.231091 1.169478 3.921554 0 0 0
997 629 8 -3.624469 4.537566 -0.224157 0 0 0
998 630 8 -8.045561 -6.74975 -4.149488 0 0 0
999 631 8 -4.575106 -2.472593 3.33217 0 0 0
1000 632 8 -2.049648 6.827412 4.59937 0 0 0
1001 633 8 -0.530673 2.275441 -0.019663 0 0 0
1002 634 8 -0.287261 -1.878157 -4.337217 0 0 0
1003 635 8 -7.693162 6.654103 -1.198661 0 0 0
1004 636 8 -8.283797 4.888886 -3.348522 0 0 0
1005 637 8 -10.690181 0.815808 0.486927 0 0 0
1006 638 8 -6.300611 -1.418219 -2.737901 0 0 0
1007 639 8 -5.817994 5.650376 3.014795 0 0 0
1008 640 8 -0.738068 1.854769 -3.014715 0 0 0
1009 641 8 -8.18474 4.390014 2.833949 0 0 0
1010 642 8 -9.458964 4.941271 3.132291 0 0 0
1011 643 8 -1.749952 -7.062796 -0.649887 0 0 0
1012 644 8 -0.958485 6.628308 -4.629095 0 0 0
1013 645 8 -10.750736 1.584309 3.27998 0 0 0
1014 646 8 -0.287167 5.713964 1.355166 0 0 0
1015 647 8 -0.456301 3.920804 0.587696 0 0 0
1016 648 8 -6.563748 -3.529671 4.503431 0 0 0
1017 649 8 -1.153783 2.621218 -4.860563 0 0 0
1018 650 8 -8.007548 -0.883366 -2.400041 0 0 0
1019 651 8 -1.667887 -6.010599 -1.731965 0 0 0
1020 652 8 -3.751792 3.667805 4.908117 0 0 0
1021 653 8 -9.004109 -6.022078 2.193894 0 0 0
1022 654 8 -1.998342 -2.412851 4.536962 0 0 0
1023 655 8 -1.035006 6.885799 -4.044242 0 0 0
1024 656 8 -1.318619 -7.463907 4.816761 0 0 0
1025 657 8 -7.536141 1.254492 0.875067 0 0 0
1026 658 8 -4.21897 3.296807 -2.955429 0 0 0
1027 659 8 -10.971442 4.330427 -2.555902 0 0 0
1028 660 8 -4.303806 5.401757 -0.784113 0 0 0
1029 661 8 -9.754689 -6.80536 4.653567 0 0 0
1030 662 8 -2.752918 1.1973 -0.441373 0 0 0
1031 663 8 -1.149799 4.617188 4.326125 0 0 0
1032 664 8 -5.451649 4.885169 1.463462 0 0 0
1033 665 8 -4.309184 -2.811875 -3.79393 0 0 0
1034 666 8 -8.336577 -4.154439 -2.505268 0 0 0
1035 667 8 -2.405423 -1.266694 -3.160388 0 0 0
1036 668 8 -6.435192 0.684153 1.115421 0 0 0
1037 669 8 -7.067414 -1.407211 -1.399659 0 0 0
1038 670 8 -9.332916 5.988104 4.412333 0 0 0
1039 671 8 -7.629851 -6.946938 2.311974 0 0 0
1040 672 8 -7.238363 -5.497522 1.592598 0 0 0
1041 673 8 -2.342001 4.47413 -2.256034 0 0 0
1042 674 8 -6.660876 1.314417 3.700731 0 0 0
1043 675 8 -10.13772 -4.979262 1.857289 0 0 0
1044 676 8 -3.074376 5.332791 -2.88874 0 0 0
1045 677 8 -7.785723 2.098618 -0.946968 0 0 0
1046 678 8 -0.386965 -1.25246 0.147939 0 0 0
1047 679 8 -10.082777 2.848198 -1.19238 0 0 0
1048 680 8 -9.080104 -3.037645 -4.912759 0 0 0
1049 681 8 -4.208159 2.828482 -4.436912 0 0 0
1050 682 8 -9.659717 7.100947 4.451049 0 0 0
1051 683 8 -8.17104 -1.239352 -4.698362 0 0 0
1052 684 8 -1.379635 5.663565 -4.172594 0 0 0
1053 685 8 -7.274622 1.483884 -4.422809 0 0 0
1054 686 8 -1.468974 0.505334 4.206526 0 0 0
1055 687 8 -10.290362 5.755843 2.366692 0 0 0
1056 688 8 -2.474241 -5.437301 -2.015959 0 0 0
1057 689 8 -2.59269 -4.06651 2.719491 0 0 0
1058 690 8 -2.199105 -1.848197 1.240532 0 0 0
1059 691 8 -7.419101 -5.874428 -0.772142 0 0 0
1060 692 8 -1.265318 -2.325421 1.411972 0 0 0
1061 693 8 -6.240303 -5.153271 -0.222259 0 0 0
1062 694 8 -7.281421 -0.658161 -3.813858 0 0 0
1063 695 8 -8.57767 7.047523 4.668882 0 0 0
1064 696 8 -9.803334 -6.054226 -4.255223 0 0 0
1065 697 8 -2.755261 3.149722 2.10558 0 0 0
1066 698 8 -5.207707 -0.357132 -4.218378 0 0 0
1067 699 8 -10.199263 6.844193 -0.839062 0 0 0
1068 700 8 -3.374609 3.009118 4.386668 0 0 0
1069 701 8 -8.963184 -5.856263 2.984718 0 0 0
1070 702 8 -4.671165 -5.771746 1.566722 0 0 0
1071 703 8 -3.324739 -3.273775 2.880488 0 0 0
1072 704 8 -0.164115 -0.990702 1.020402 0 0 0
1073 705 8 -4.108007 1.612127 -2.69237 0 0 0
1074 706 8 -0.811686 -0.475986 4.37841 0 0 0
1075 707 8 -0.343137 6.265789 -2.242399 0 0 0
1076 708 8 -0.50791 6.372326 -1.768651 0 0 0
1077 709 8 -0.374781 -7.202748 4.295263 0 0 0
1078 710 8 -9.520758 2.625343 -0.519304 0 0 0
1079 711 8 -5.620052 3.273069 1.380724 0 0 0
1080 712 8 -6.937789 0.487209 -2.230898 0 0 0
1081 713 8 -4.739664 6.197398 4.491256 0 0 0
1082 714 8 -1.751947 6.679522 -4.118182 0 0 0
1083 715 8 -8.246597 2.61678 -4.617035 0 0 0
1084 716 8 -5.602829 7.233093 0.039003 0 0 0
1085 717 8 -7.706652 -0.271553 -3.864893 0 0 0
1086 718 8 -2.965178 1.766564 -3.130913 0 0 0
1087 719 8 -4.267707 2.36192 4.289152 0 0 0
1088 720 8 -2.621847 -5.39722 -1.274548 0 0 0
1089 721 8 -8.603085 6.628703 -0.940677 0 0 0
1090 722 8 -9.349009 -5.269298 -2.454027 0 0 0
1091 723 8 -5.86954 -0.78836 1.214792 0 0 0
1092 724 8 -4.285908 2.454423 -4.067145 0 0 0
1093 725 8 -0.507212 -7.264552 4.010991 0 0 0
1094 726 8 -5.878087 2.609053 2.466055 0 0 0
1095 727 8 -2.323431 7.076122 4.672478 0 0 0
1096 728 8 -9.59243 -7.139456 -3.78018 0 0 0
1097 729 8 -7.537202 0.063209 4.031072 0 0 0
1098 730 8 -10.25679 -2.519607 4.746221 0 0 0
1099 731 8 -0.104987 4.500716 -1.229365 0 0 0
1100 732 8 -5.46661 7.234696 1.547347 0 0 0
1101 733 8 -1.455714 -5.653986 -3.400988 0 0 0
1102 734 8 -5.710597 -6.266039 -2.113719 0 0 0
1103 735 8 -2.205141 -6.921649 3.164012 0 0 0
1104 736 8 -3.188406 -2.822253 1.524525 0 0 0
1105 737 8 -9.358807 0.640286 0.748826 0 0 0
1106 738 8 -4.042019 1.74426 -3.112663 0 0 0
1107 739 8 -8.539645 -7.272431 -1.803427 0 0 0
1108 740 8 -4.042523 -6.497383 -1.222226 0 0 0
1109 741 8 -3.637007 -1.819711 -3.810515 0 0 0
1110 742 8 -9.412253 3.46835 -1.696141 0 0 0
1111 743 8 -6.244614 -4.530253 -4.971185 0 0 0
1112 744 8 -10.311845 -3.788777 3.266844 0 0 0
1113 745 8 -2.190069 4.379305 2.996642 0 0 0
1114 746 8 -0.302263 -0.011795 -4.779959 0 0 0
1115 747 8 -9.112336 -1.673035 -3.546864 0 0 0
1116 748 8 -6.818252 7.257197 -3.801687 0 0 0
1117 749 8 -3.210763 6.727801 4.726209 0 0 0
1118 750 8 -5.401561 5.811658 3.196979 0 0 0
1119 751 8 -1.050269 1.723069 3.535658 0 0 0
1120 752 8 -1.329629 -5.557855 -2.120101 0 0 0
1121 753 8 -3.561524 -1.447141 1.456164 0 0 0
1122 754 8 -1.460097 7.278626 -1.561901 0 0 0
1123 755 8 -10.794164 -0.588059 -2.852322 0 0 0
1124 756 8 -9.411548 1.600606 2.445611 0 0 0
1125 757 8 -1.968306 -1.431555 0.392029 0 0 0
1126 758 8 -9.850042 2.50878 0.126219 0 0 0
1127 759 8 -7.928054 1.536598 2.991048 0 0 0
1128 760 8 -4.225509 -1.92415 2.70543 0 0 0
1129 761 8 -8.809734 6.788474 2.67711 0 0 0
1130 762 8 -8.476252 -4.409936 -0.515093 0 0 0
1131 763 8 -10.793282 -1.911556 2.676025 0 0 0
1132 764 8 -4.444046 4.528918 -2.804308 0 0 0
1133 765 8 -4.321378 7.355198 3.20271 0 0 0
1134 766 8 -1.581674 3.146157 1.754276 0 0 0
1135 767 8 -7.716294 -5.541041 3.974423 0 0 0
1136 768 8 -4.332564 -6.647753 1.090698 0 0 0
1137 769 8 -9.072443 1.684116 0.552571 0 0 0
1138 770 8 -6.175887 -3.8502 -2.116174 0 0 0
1139 771 8 -4.601524 -5.490938 -0.100731 0 0 0
1140 772 8 -2.15779 6.507029 -3.434443 0 0 0
1141 773 8 -4.641607 4.641521 1.348744 0 0 0
1142 774 8 -10.826341 4.856802 4.521772 0 0 0
1143 775 8 -8.653261 4.015605 -1.605152 0 0 0
1144 776 8 -5.169063 -4.576656 -0.017132 0 0 0
1145 777 8 -10.532117 -0.654028 0.274532 0 0 0
1146 778 8 -4.115223 1.639171 3.448146 0 0 0
1147 779 8 -0.591898 -0.317948 -3.453188 0 0 0
1148 780 8 -10.747459 -1.717346 -1.283311 0 0 0
1149 781 8 -9.981603 1.960219 0.959692 0 0 0
1150 782 8 -9.050806 -0.754066 0.92699 0 0 0
1151 783 8 -3.269663 -1.724569 4.683804 0 0 0
1152 784 8 -2.848858 -2.707762 0.633406 0 0 0
1153 785 8 -2.654762 5.663694 2.01341 0 0 0
1154 786 8 -3.559945 0.346029 -2.059772 0 0 0
1155 787 8 -8.310216 -3.003242 -3.17748 0 0 0
1156 788 8 -4.466287 6.444155 -3.834006 0 0 0
1157 789 8 -5.760661 7.366543 -4.06088 0 0 0
1158 790 8 -4.462079 2.672729 -0.467656 0 0 0
1159 791 8 -3.429616 1.678691 -1.225908 0 0 0
1160 792 8 -7.734564 2.684091 3.953262 0 0 0
1161 793 8 -8.34429 -2.582495 1.049273 0 0 0
1162 794 8 -6.442859 -5.484555 0.918084 0 0 0
1163 795 8 -5.216565 3.496652 -3.921231 0 0 0
1164 796 8 -10.3979 0.551662 2.704571 0 0 0
1165 797 8 -10.167613 6.58998 4.054574 0 0 0
1166 798 8 -5.436912 -1.973017 -1.976681 0 0 0
1167 799 8 -6.481883 1.263537 -4.89997 0 0 0
1168 800 8 -5.061014 -7.135842 3.783192 0 0 0
1169 801 8 -4.122313 -4.268343 0.871159 0 0 0
1170 802 8 -0.846543 -2.971945 -3.432875 0 0 0
1171 803 8 -7.204292 2.871623 3.615493 0 0 0
1172 804 8 -1.071837 3.750114 3.943752 0 0 0
1173 805 8 -9.875473 -6.533657 -1.363598 0 0 0
1174 806 8 -5.510802 4.952353 -3.984215 0 0 0
1175 807 8 -5.323808 1.23969 -3.689166 0 0 0
1176 808 8 -8.132726 2.531871 -0.058452 0 0 0
1177 809 8 -0.98435 4.991529 1.079562 0 0 0
1178 810 8 -0.125435 4.555749 4.479551 0 0 0
1179 811 8 -10.167969 -1.015256 -4.524884 0 0 0
1180 812 8 -3.568089 -0.777223 -3.372283 0 0 0
1181 813 8 -2.601371 5.685882 1.065642 0 0 0
1182 814 8 -4.148008 4.93294 0.828637 0 0 0
1183 815 8 -8.149029 -0.626448 -3.980502 0 0 0
1184 816 8 -8.274621 7.137294 4.498041 0 0 0
1185 817 8 -6.668048 -4.277153 -3.907028 0 0 0
1186 818 8 -6.23799 0.824026 2.477585 0 0 0
1187 819 8 -4.209928 -4.462774 -1.36775 0 0 0
1188 820 8 -9.428742 5.773082 2.03348 0 0 0
1189 821 8 -1.909738 -2.379601 1.964051 0 0 0
1190 822 8 -1.920928 -3.984689 2.533251 0 0 0
1191 823 8 -5.032915 0.087156 -3.507177 0 0 0
1192 824 8 -4.918696 -2.432729 0.957364 0 0 0
1193 825 8 -10.142176 3.111833 -0.608318 0 0 0
1194 826 8 -7.18133 7.38898 -3.67671 0 0 0
1195 827 8 -7.584157 4.152287 1.72128 0 0 0
1196 828 8 -1.438866 -4.241994 -1.794763 0 0 0
1197 829 8 -8.893133 0.525539 -2.114572 0 0 0
1198 830 8 -8.441561 2.353698 1.057895 0 0 0
1199 831 8 -3.437661 -3.792895 -1.412453 0 0 0
1200 832 8 -2.606458 4.217241 1.208457 0 0 0
1201 833 8 -1.263433 5.388823 -1.293178 0 0 0
1202 834 8 -8.948301 -1.721524 -0.46334 0 0 0
1203 835 8 -6.550641 4.672172 2.115933 0 0 0
1204 836 8 -8.952206 -5.995617 3.006418 0 0 0
1205 837 8 -2.217339 2.601873 0.683997 0 0 0
1206 838 8 -10.56821 -1.724355 1.068227 0 0 0
1207 839 8 -4.706467 -1.852152 -0.384535 0 0 0
1208 840 8 -9.739409 5.392182 4.217152 0 0 0
1209 841 8 -1.42435 1.610661 4.780699 0 0 0
1210 842 8 -3.201576 3.264865 4.514906 0 0 0
1211 843 8 -4.39122 2.802328 2.671957 0 0 0
1212 844 8 -6.383563 2.401877 4.714625 0 0 0
1213 845 8 -4.980964 7.030288 3.47748 0 0 0
1214 846 8 -2.690545 4.506259 -2.48709 0 0 0
1215 847 8 -8.121471 -5.378668 3.150281 0 0 0
1216 848 8 -10.11588 6.940745 4.908871 0 0 0
1217 849 8 -4.618754 3.676474 -0.145037 0 0 0
1218 850 8 -8.607907 -3.254208 -2.031072 0 0 0
1219 851 8 -0.850623 -2.46979 1.863111 0 0 0
1220 852 8 -0.587198 -3.649561 1.123146 0 0 0
1221 853 8 -7.834166 1.651742 -1.624356 0 0 0
1222 854 8 -6.703607 -3.549557 3.02614 0 0 0
1223 855 8 -0.384877 -0.041233 -1.007571 0 0 0
1224 856 8 -6.525428 -0.419065 3.070785 0 0 0
1225 857 8 -0.827886 -4.266883 4.818545 0 0 0
1226 858 8 -9.698595 -5.987684 -0.859517 0 0 0
1227 859 8 -4.145416 3.316125 3.566731 0 0 0
1228 860 8 -10.781045 3.965371 0.432654 0 0 0
1229 861 8 -2.603201 -2.558529 -3.215441 0 0 0
1230 862 8 -7.150109 4.696751 -0.305285 0 0 0
1231 863 8 -7.066216 4.557571 4.000751 0 0 0
1232 864 8 -8.195888 1.436145 -1.202381 0 0 0
1233 865 8 -7.617722 -6.096969 0.852455 0 0 0
1234 866 8 -9.678444 -0.033195 3.248009 0 0 0
1235 867 8 -3.43322 5.033371 -4.00021 0 0 0
1236 868 8 -5.872412 3.216504 4.732034 0 0 0
1237 869 8 -3.811552 3.837184 4.080288 0 0 0
1238 870 8 -9.361473 3.82039 0.141988 0 0 0
1239 871 8 -0.351407 5.797139 2.427037 0 0 0
1240 872 8 -8.160341 7.381693 -4.52898 0 0 0
1241 873 8 -6.954012 -1.426736 -3.374499 0 0 0
1242 874 8 -6.592186 1.815658 -3.782321 0 0 0
1243 875 8 -7.09526 0.241391 4.210611 0 0 0
1244 876 8 -0.192121 2.558045 1.153477 0 0 0
1245 877 8 -1.01983 7.118097 3.218801 0 0 0
1246 878 8 -0.001092 4.529884 -1.777263 0 0 0
1247 879 8 -4.85127 -3.742576 -1.437445 0 0 0
1248 880 8 -4.902371 -1.581414 -0.740076 0 0 0
1249 881 8 -5.382998 -0.644488 1.711262 0 0 0
1250 882 8 -8.336958 -5.443196 -1.178356 0 0 0
1251 883 8 -6.748377 6.489699 4.261974 0 0 0
1252 884 8 -3.637549 -1.904946 -1.462401 0 0 0
1253 885 8 -3.973667 -7.103289 3.565069 0 0 0
1254 886 8 -8.822309 -6.516055 1.222693 0 0 0
1255 887 8 -1.852435 -2.574559 1.381641 0 0 0
1256 888 8 -1.302413 6.933047 -3.081741 0 0 0
1257 889 8 -5.441069 4.788969 -4.744286 0 0 0
1258 890 8 -7.98114 4.379436 -4.563701 0 0 0
1259 891 8 -10.547819 -3.742024 -4.083972 0 0 0
1260 892 8 -10.446862 3.373947 3.595811 0 0 0
1261 893 8 -1.126728 -6.997131 -0.031219 0 0 0
1262 894 8 -8.088035 -2.636525 2.0793 0 0 0
1263 895 8 -3.605836 -2.313631 2.340866 0 0 0
1264 896 8 -1.226595 4.636182 -3.331815 0 0 0
1265 897 8 -9.662284 2.214903 -3.132011 0 0 0
1266 898 8 -2.829759 -7.342309 -4.575247 0 0 0
1267 899 8 -6.016518 -2.61179 -0.584224 0 0 0
1268 900 8 -1.209832 -1.746837 4.266278 0 0 0
1269 901 8 -2.91365 6.419022 4.474634 0 0 0
1270 902 8 -0.518074 -5.381335 -4.379486 0 0 0
1271 903 8 -5.651067 6.181967 -2.508485 0 0 0
1272 904 8 -5.189209 3.23937 -1.970955 0 0 0
1273 905 8 -4.469414 5.762055 -0.258373 0 0 0
1274 906 8 -10.555802 3.150356 -1.63458 0 0 0
1275 907 8 -4.179336 -4.165631 -0.466732 0 0 0
1276 908 8 -6.887958 3.056419 1.097271 0 0 0
1277 909 8 -8.114176 -2.00335 2.967503 0 0 0
1278 910 8 -9.843079 2.28343 -4.165722 0 0 0
1279 911 8 -0.412316 4.119322 4.596114 0 0 0
1280 912 8 -8.445832 -3.267861 -0.309974 0 0 0
1281 913 8 -8.107425 -2.838694 2.085184 0 0 0
1282 914 8 -1.195215 -0.159872 4.081804 0 0 0
1283 915 8 -2.736183 2.178174 1.488962 0 0 0
1284 916 8 -7.406445 -6.770835 -3.605111 0 0 0
1285 917 8 -6.392013 5.16886 2.085237 0 0 0
1286 918 8 -5.60388 3.196407 4.812365 0 0 0
1287 919 8 -10.093648 5.643952 2.84404 0 0 0
1288 920 8 -10.618697 2.517013 -3.877058 0 0 0
1289 921 8 -1.559263 3.85557 4.551947 0 0 0
1290 922 8 -6.552392 0.027266 4.78107 0 0 0

Velocities

1 0 0 0
2 0 0 0
3 0 0 0
4 0 0 0
5 0 0 0
6 0 0 0
7 0 0 0
8 0 0 0
9 0 0 0
10 0 0 0
11 0 0 0
12 0 0 0
13 0 0 0
14 0 0 0
15 0 0 0
16 0 0 0
17 0 0 0
18 0 0 0
19 0 0 0
20 0 0 0
21 0 0 0
22 0 0 0
23 0 0 0
24 0 0 0
25 0 0 0
26 0 0 0
27 0 0 0
28 0 0 0
29 0 0 0
30 0 0 0
31 0 0 0
32 0 0 0
33 0 0 0
34 0 0 0
35 0 0 0
36 0 0 0
37 0 0 0
38 0 0 0
39 0 0 0
40 0 0 0
41 0 0 0
42 0 0 0
43 0 0 0
44 0 0 0
45 0 0 0
46 0 0 0
47 0 0 0
48 0 0 0
49 0 0 0
50 0 0 0
51 0 0 0
52 0 0 0
53 0 0 0
54 0 0 0
55 0 0 0
56 0 0 0
57 0 0 0
58 0 0 0
59 0 0 0
60 0 0 0
61 0 0 0
62 0 0 0
63 0 0 0
64 0 0 0
65 0 0 0
66 0 0 0
67 0 0 0
68 0 0 0
69 0 0 0
70 0 0 0
71 0 0 0
72 0 0 0
73 0 0 0
74 0 0 0
75 0 0 0
76 0 0 0
77 0 0 0
78 0 0 0
79 0 0 0
80 0 0 0
81 0 0 0
82 0 0 0
83 0 0 0
84 0 0 0
85 0 0 0
86 0 0 0
87 0 0 0
88 0 0 0
89 0 0 0
90 0 0 0
91 0 0 0
92 0 0 0
93 0 0 0
94 0 0 0
95 0 0 0
96 0 0 0
97 0 0 0
98 0 0 0
99 0 0 0
100 0 0 0
101 0 0 0
102 0 0 0
103 0 0 0
104 0 0 0
105 0 0 0
106 0 0 0
107 0 0 0
108 0 0 0
109 0 0 0
110 0 0 0
111 0 0 0
112 0 0 0
113 0 0 0
114 0 0 0
115 0 0 0
116 0 0 0
117 0 0 0
118 0 0 0
119 0 0 0
120 0 0 0
121 0 0 0
122 0 0 0
123 0 0 0
124 0 0 0
125 0 0 0
126 0 0 0
127 0 0 0
128 0 0 0
129 0 0 0
130 0 0 0
131 0 0 0
132 0 0 0
133 0 0 0
134 0 0 0
135 0 0 0
136 0 0 0
137 0 0 0
138 0 0 0
139 0 0 0
140 0 0 0
141 0 0 0
142 0 0 0
143 0 0 0
144 0 0 0
145 0 0 0
146 0 0 0
147 0 0 0
148 0 0 0
149 0 0 0
150 0 0 0
151 0 0 0
152 0 0 0
153 0 0 0
154 0 0 0
155 0 0 0
156 0 0 0
157 0 0 0
158 0 0 0
159 0 0 0
160 0 0 0
161 0 0 0
162 0 0 0
163 0 0 0
164 0 0 0
165 0 0 0
166 0 0 0
167 0 0 0
168 0 0 0
169 0 0 0
170 0 0 0
171 0 0 0
172 0 0 0
173 0 0 0
174 0 0 0
175 0 0 0
176 0 0 0
177 0 0 0
178 0 0 0
179 0 0 0
180 0 0 0
181 0 0 0
182 0 0 0
183 0 0 0
184 0 0 0
185 0 0 0
186 0 0 0
187 0 0 0
188 0 0 0
189 0 0 0
190 0 0 0
191 0 0 0
192 0 0 0
193 0 0 0
194 0 0 0
195 0 0 0
196 0 0 0
197 0 0 0
198 0 0 0
199 0 0 0
200 0 0 0
201 0 0 0
202 0 0 0
203 0 0 0
204 0 0 0
205 0 0 0
206 0 0 0
207 0 0 0
208 0 0 0
209 0 0 0
210 0 0 0
211 0 0 0
212 0 0 0
213 0 0 0
214 0 0 0
215 0 0 0
216 0 0 0
217 0 0 0
218 0 0 0
219 0 0 0
220 0 0 0
221 0 0 0
222 0 0 0
223 0 0 0
224 0 0 0
225 0 0 0
226 0 0 0
227 0 0 0
228 0 0 0
229 0 0 0
230 0 0 0
231 0 0 0
232 0 0 0
233 0 0 0
234 0 0 0
235 0 0 0
236 0 0 0
237 0 0 0
238 0 0 0
239 0 0 0
240 0 0 0
241 0 0 0
242 0 0 0
243 0 0 0
244 0 0 0
245 0 0 0
246 0 0 0
247 0 0 0
248 0 0 0
249 0 0 0
250 0 0 0
251 0 0 0
252 0 0 0
253 0 0 0
254 0 0 0
255 0 0 0
256 0 0 0
257 0 0 0
258 0 0 0
259 0 0 0
260 0 0 0
261 0 0 0
262 0 0 0
263 0 0 0
264 0 0 0
265 0 0 0
266 0 0 0
267 0 0 0
268 0 0 0
269 0 0 0
270 0 0 0
271 0 0 0
272 0 0 0
273 0 0 0
274 0 0 0
275 0 0 0
276 0 0 0
277 0 0 0
278 0 0 0
279 0 0 0
280 0 0 0
281 0 0 0
282 0 0 0
283 0 0 0
284 0 0 0
285 0 0 0
286 0 0 0
287 0 0 0
288 0 0 0
289 0 0 0
290 0 0 0
291 0 0 0
292 0 0 0
293 0 0 0
294 0 0 0
295 0 0 0
296 0 0 0
297 0 0 0
298 0 0 0
299 0 0 0
300 0 0 0
301 0 0 0
302 0 0 0
303 0 0 0
304 0 0 0
305 0 0 0
306 0 0 0
307 0 0 0
308 0 0 0
309 0 0 0
310 0 0 0
311 0 0 0
312 0 0 0
313 0 0 0
314 0 0 0
315 0 0 0
316 0 0 0
317 0 0 0
318 0 0 0
319 0 0 0
320 0 0 0
321 0 0 0
322 0 0 0
323 0 0 0
324 0 0 0
325 0 0 0
326 0 0 0
327 0 0 0
328 0 0 0
329 0 0 0
330 0 0 0
331 0 0 0
332 0 0 0
333 0 0 0
334 0 0 0
335 0 0 0
336 0 0 0
337 0 0 0
338 0 0 0
339 0 0 0
340 0 0 0
341 0 0 0
342 0 0 0
343 0 0 0
344 0 0 0
345 0 0 0
346 0 0 0
347 0 0 0
348 0 0 0
349 0 0 0
350 0 0 0
351 0 0 0
352 0 0 0
353 0 0 0
354 0 0 0
355 0 0 0
356 0 0 0
357 0 0 0
358 0 0 0
359 0 0 0
360 0 0 0
361 0 0 0
362 0 0 0
363 0 0 0
364 0 0 0
365 0 0 0
366 0 0 0
367 0 0 0
368 0 0 0
369 0 0 0
370 0 0 0
371 0 0 0
372 0 0 0
373 0 0 0
374 0 0 0
375 0 0 0
376 0 0 0
377 0 0 0
378 0 0 0
379 0 0 0
380 0 0 0
381 0 0 0
382 0 0 0
383 0 0 0
384 0 0 0
385 0 0 0
386 0 0 0
387 0 0 0
388 0 0 0
389 0 0 0
390 0 0 0
391 0 0 0
392 0 0 0
393 0 0 0
394 0 0 0
395 0 0 0
396 0 0 0
397 0 0 0
398 0 0 0
399 0 0 0
400 0 0 0
401 0 0 0
402 0 0 0
403 0 0 0
404 0 0 0
405 0 0 0
406 0 0 0
407 0 0 0
408 0 0 0
409 0 0 0
410 0 0 0
411 0 0 0
412 0 0 0
413 0 0 0
414 0 0 0
415 0 0 0
416 0 0 0
417 0 0 0
418 0 0 0
419 0 0 0
420 0 0 0
421 0 0 0
422 0 0 0
423 0 0 0
424 0 0 0
425 0 0 0
426 0 0 0
427 0 0 0
428 0 0 0
429 0 0 0
430 0 0 0
431 0 0 0
432 0 0 0
433 0 0 0
434 0 0 0
435 0 0 0
436 0 0 0
437 0 0 0
438 0 0 0
439 0 0 0
440 0 0 0
441 0 0 0
442 0 0 0
443 0 0 0
444 0 0 0
445 0 0 0
446 0 0 0
447 0 0 0
448 0 0 0
449 0 0 0
450 0 0 0
451 0 0 0
452 0 0 0
453 0 0 0
454 0 0 0
455 0 0 0
456 0 0 0
457 0 0 0
458 0 0 0
459 0 0 0
460 0 0 0
461 0 0 0
462 0 0 0
463 0 0 0
464 0 0 0
465 0 0 0
466 0 0 0
467 0 0 0
468 0 0 0
469 0 0 0
470 0 0 0
471 0 0 0
472 0 0 0
473 0 0 0
474 0 0 0
475 0 0 0
476 0 0 0
477 0 0 0
478 0 0 0
479 0 0 0
480 0 0 0
481 0 0 0
482 0 0 0
483 0 0 0
484 0 0 0
485 0 0 0
486 0 0 0
487 0 0 0
488 0 0 0
489 0 0 0
490 0 0 0
491 0 0 0
492 0 0 0
493 0 0 0
494 0 0 0
495 0 0 0
496 0 0 0
497 0 0 0
498 0 0 0
499 0 0 0
500 0 0 0
501 0 0 0
502 0 0 0
503 0 0 0
504 0 0 0
505 0 0 0
506 0 0 0
507 0 0 0
508 0 0 0
509 0 0 0
510 0 0 0
511 0 0 0
512 0 0 0
513 0 0 0
514 0 0 0
515 0 0 0
516 0 0 0
517 0 0 0
518 0 0 0
519 0 0 0
520 0 0 0
521 0 0 0
522 0 0 0
523 0 0 0
524 0 0 0
525 0 0 0
526 0 0 0
527 0 0 0
528 0 0 0
529 0 0 0
530 0 0 0
531 0 0 0
532 0 0 0
533 0 0 0
534 0 0 0
535 0 0 0
536 0 0 0
537 0 0 0
538 0 0 0
539 0 0 0
540 0 0 0
541 0 0 0
542 0 0 0
543 0 0 0
544 0 0 0
545 0 0 0
546 0 0 0
547 0 0 0
548 0 0 0
549 0 0 0
550 0 0 0
551 0 0 0
552 0 0 0
553 0 0 0
554 0 0 0
555 0 0 0
556 0 0 0
557 0 0 0
558 0 0 0
559 0 0 0
560 0 0 0
561 0 0 0
562 0 0 0
563 0 0 0
564 0 0 0
565 0 0 0
566 0 0 0
567 0 0 0
568 0 0 0
569 0 0 0
570 0 0 0
571 0 0 0
572 0 0 0
573 0 0 0
574 0 0 0
575 0 0 0
576 0 0 0
577 0 0 0
578 0 0 0
579 0 0 0
580 0 0 0
581 0 0 0
582 0 0 0
583 0 0 0
584 0 0 0
585 0 0 0
586 0 0 0
587 0 0 0
588 0 0 0
589 0 0 0
590 0 0 0
591 0 0 0
592 0 0 0
593 0 0 0
594 0 0 0
595 0 0 0
596 0 0 0
597 0 0 0
598 0 0 0
599 0 0 0
600 0 0 0
601 0 0 0
602 0 0 0
603 0 0 0
604 0 0 0
605 0 0 0
606 0 0 0
607 0 0 0
608 0 0 0
609 0 0 0
610 0 0 0
611 0 0 0
612 0 0 0
613 0 0 0
614 0 0 0
615 0 0 0
616 0 0 0
617 0 0 0
618 0 0 0
619 0 0 0
620 0 0 0
621 0 0 0
622 0 0 0
623 0 0 0
624 0 0 0
625 0 0 0
626 0 0 0
627 0 0 0
628 0 0 0
629 0 0 0
630 0 0 0
631 0 0 0
632 0 0 0
633 0 0 0
634 0 0 0
635 0 0 0
636 0 0 0
637 0 0 0
638 0 0 0
639 0 0 0
640 0 0 0
641 0 0 0
642 0 0 0
643 0 0 0
644 0 0 0
645 0 0 0
646 0 0 0
647 0 0 0
648 0 0 0
649 0 0 0
650 0 0 0
651 0 0 0
652 0 0 0
653 0 0 0
654 0 0 0
655 0 0 0
656 0 0 0
657 0 0 0
658 0 0 0
659 0 0 0
660 0 0 0
661 0 0 0
662 0 0 0
663 0 0 0
664 0 0 0
665 0 0 0
666 0 0 0
667 0 0 0
668 0 0 0
669 0 0 0
670 0 0 0
671 0 0 0
672 0 0 0
673 0 0 0
674 0 0 0
675 0 0 0
676 0 0 0
677 0 0 0
678 0 0 0
679 0 0 0
680 0 0 0
681 0 0 0
682 0 0 0
683 0 0 0
684 0 0 0
685 0 0 0
686 0 0 0
687 0 0 0
688 0 0 0
689 0 0 0
690 0 0 0
691 0 0 0
692 0 0 0
693 0 0 0
694 0 0 0
695 0 0 0
696 0 0 0
697 0 0 0
698 0 0 0
699 0 0 0
700 0 0 0
701 0 0 0
702 0 0 0
703 0 0 0
704 0 0 0
705 0 0 0
706 0 0 0
707 0 0 0
708 0 0 0
709 0 0 0
710 0 0 0
711 0 0 0
712 0 0 0
713 0 0 0
714 0 0 0
715 0 0 0
716 0 0 0
717 0 0 0
718 0 0 0
719 0 0 0
720 0 0 0
721 0 0 0
722 0 0 0
723 0 0 0
724 0 0 0
725 0 0 0
726 0 0 0
727 0 0 0
728 0 0 0
729 0 0 0
730 0 0 0
731 0 0 0
732 0 0 0
733 0 0 0
734 0 0 0
735 0 0 0
736 0 0 0
737 0 0 0
738 0 0 0
739 0 0 0
740 0 0 0
741 0 0 0
742 0 0 0
743 0 0 0
744 0 0 0
745 0 0 0
746 0 0 0
747 0 0 0
748 0 0 0
749 0 0 0
750 0 0 0
751 0 0 0
752 0 0 0
753 0 0 0
754 0 0 0
755 0 0 0
756 0 0 0
757 0 0 0
758 0 0 0
759 0 0 0
760 0 0 0
761 0 0 0
762 0 0 0
763 0 0 0
764 0 0 0
765 0 0 0
766 0 0 0
767 0 0 0
768 0 0 0
769 0 0 0
770 0 0 0
771 0 0 0
772 0 0 0
773 0 0 0
774 0 0 0
775 0 0 0
776 0 0 0
777 0 0 0
778 0 0 0
779 0 0 0
780 0 0 0
781 0 0 0
782 0 0 0
783 0 0 0
784 0 0 0
785 0 0 0
786 0 0 0
787 0 0 0
788 0 0 0
789 0 0 0
790 0 0 0
791 0 0 0
792 0 0 0
793 0 0 0
794 0 0 0
795 0 0 0
796 0 0 0
797 0 0 0
798 0 0 0
799 0 0 0
800 0 0 0
801 0 0 0
802 0 0 0
803 0 0 0
804 0 0 0
805 0 0 0
806 0 0 0
807 0 0 0
808 0 0 0
809 0 0 0
810 0 0 0
811 0 0 0
812 0 0 0
813 0 0 0
814 0 0 0
815 0 0 0
816 0 0 0
817 0 0 0
818 0 0 0
819 0 0 0
820 0 0 0
821 0 0 0
822 0 0 0
823 0 0 0
824 0 0 0
825 0 0 0
826 0 0 0
827 0 0 0
828 0 0 0
829 0 0 0
830 0 0 0
831 0 0 0
832 0 0 0
833 0 0 0
834 0 0 0
835 0 0 0
836 0 0 0
837 0 0 0
838 0 0 0
839 0 0 0
840 0 0 0
841 0 0 0
842 0 0 0
843 0 0 0
844 0 0 0
845 0 0 0
846 0 0 0
847 0 0 0
848 0 0 0
849 0 0 0
850 0 0 0
851 0 0 0
852 0 0 0
853 0 0 0
854 0 0 0
855 0 0 0
856 0 0 0
857 0 0 0
858 0 0 0
859 0 0 0
860 0 0 0
861 0 0 0
862 0 0 0
863 0 0 0
864 0 0 0
865 0 0 0
866 0 0 0
867 0 0 0
868 0 0 0
869 0 0 0
870 0 0 0
871 0 0 0
872 0 0 0
873 0 0 0
874 0 0 0
875 0 0 0
876 0 0 0
877 0 0 0
878 0 0 0
879 0 0 0
880 0 0 0
881 0 0 0
882 0 0 0
883 0 0 0
884 0 0 0
885 0 0 0
886 0 0 0
887 0 0 0
888 0 0 0
889 0 0 0
890 0 0 0
891 0 0 0
892 0 0 0
893 0 0 0
894 0 0 0
895 0 0 0
896 0 0 0
897 0 0 0
898 0 0 0
899 0 0 0
900 0 0 0
901 0 0 0
902 0 0 0
903 0 0 0
904 0 0 0
905 0 0 0
906 0 0 0
907 0 0 0
908 0 0 0
909 0 0 0
910 0 0 0
911 0 0 0
912 0 0 0
913 0 0 0
914 0 0 0
915 0 0 0
916 0 0 0
917 0 0 0
918 0 0 0
919 0 0 0
920 0 0 0
921 0 0 0
922 0 0 0
923 0 0 0
924 0 0 0
925 0 0 0
926 0 0 0
927 0 0 0
928 0 0 0
929 0 0 0
930 0 0 0
931 0 0 0
932 0 0 0
933 0 0 0
934 0 0 0
935 0 0 0
936 0 0 0
937 0 0 0
938 0 0 0
939 0 0 0
940 0 0 0
941 0 0 0
942 0 0 0
943 0 0 0
944 0 0 0
945 0 0 0
946 0 0 0
947 0 0 0
948 0 0 0
949 0 0 0
950 0 0 0
951 0 0 0
952 0 0 0
953 0 0 0
954 0 0 0
955 0 0 0
956 0 0 0
957 0 0 0
958 0 0 0
959 0 0 0
960 0 0 0
961 0 0 0
962 0 0 0
963 0 0 0
964 0 0 0
965 0 0 0
966 0 0 0
967 0 0 0
968 0 0 0
969 0 0 0
970 0 0 0
971 0 0 0
972 0 0 0
973 0 0 0
974 0 0 0
975 0 0 0
976 0 0 0
977 0 0 0
978 0 0 0
979 0 0 0
980 0 0 0
981 0 0 0
982 0 0 0
983 0 0 0
984 0 0 0
985 0 0 0
986 0 0 0
987 0 0 0
988 0 0 0
989 0 0 0
990 0 0 0
991 0 0 0
992 0 0 0
993 0 0 0
994 0 0 0
995 0 0 0
996 0 0 0
997 0 0 0
998 0 0 0
999 0 0 0
1000 0 0 0
1001 0 0 0
1002 0 0 0
1003 0 0 0
1004 0 0 0
1005 0 0 0
1006 0 0 0
1007 0 0 0
1008 0 0 0
1009 0 0 0
1010 0 0 0
1011 0 0 0
1012 0 0 0
1013 0 0 0
1014 0 0 0
1015 0 0 0
1016 0 0 0
1017 0 0 0
1018 0 0 0
1019 0 0 0
1020 0 0 0
1021 0 0 0
1022 0 0 0
1023 0 0 0
1024 0 0 0
1025 0 0 0
1026 0 0 0
1027 0 0 0
1028 0 0 0
1029 0 0 0
1030 0 0 0
1031 0 0 0
1032 0 0 0
1033 0 0 0
1034 0 0 0
1035 0 0 0
1036 0 0 0
1037 0 0 0
1038 0 0 0
1039 0 0 0
1040 0 0 0
1041 0 0 0
1042 0 0 0
1043 0 0 0
1044 0 0 0
1045 0 0 0
1046 0 0 0
1047 0 0 0
1048 0 0 0
1049 0 0 0
1050 0 0 0
1051 0 0 0
1052 0 0 0
1053 0 0 0
1054 0 0 0
1055 0 0 0
1056 0 0 0
1057 0 0 0
1058 0 0 0
1059 0 0 0
1060 0 0 0
1061 0 0 0
1062 0 0 0
1063 0 0 0
1064 0 0 0
1065 0 0 0
1066 0 0 0
1067 0 0 0
1068 0 0 0
1069 0 0 0
1070 0 0 0
1071 0 0 0
1072 0 0 0
1073 0 0 0
1074 0 0 0
1075 0 0 0
1076 0 0 0
1077 0 0 0
1078 0 0 0
1079 0 0 0
1080 0 0 0
1081 0 0 0
1082 0 0 0
1083 0 0 0
1084 0 0 0
1085 0 0 0
1086 0 0 0
1087 0 0 0
1088 0 0 0
1089 0 0 0
1090 0 0 0
1091 0 0 0
1092 0 0 0
1093 0 0 0
1094 0 0 0
1095 0 0 0
1096 0 0 0
1097 0 0 0
1098 0 0 0
1099 0 0 0
1100 0 0 0
1101 0 0 0
1102 0 0 0
1103 0 0 0
1104 0 0 0
1105 0 0 0
1106 0 0 0
1107 0 0 0
1108 0 0 0
1109 0 0 0
1110 0 0 0
1111 0 0 0
1112 0 0 0
1113 0 0 0
1114 0 0 0
1115 0 0 0
1116 0 0 0
1117 0 0 0
1118 0 0 0
1119 0 0 0
1120 0 0 0
1121 0 0 0
1122 0 0 0
1123 0 0 0
1124 0 0 0
1125 0 0 0
1126 0 0 0
1127 0 0 0
1128 0 0 0
1129 0 0 0
1130 0 0 0
1131 0 0 0
1132 0 0 0
1133 0 0 0
1134 0 0 0
1135 0 0 0
1136 0 0 0
1137 0 0 0
1138 0 0 0
1139 0 0 0
1140 0 0 0
1141 0 0 0
1142 0 0 0
1143 0 0 0
1144 0 0 0
1145 0 0 0
1146 0 0 0
1147 0 0 0
1148 0 0 0
1149 0 0 0
1150 0 0 0
1151 0 0 0
1152 0 0 0
1153 0 0 0
1154 0 0 0
1155 0 0 0
1156 0 0 0
1157 0 0 0
1158 0 0 0
1159 0 0 0
1160 0 0 0
1161 0 0 0
1162 0 0 0
1163 0 0 0
1164 0 0 0
1165 0 0 0
1166 0 0 0
1167 0 0 0
1168 0 0 0
1169 0 0 0
1170 0 0 0
1171 0 0 0
1172 0 0 0
1173 0 0 0
1174 0 0 0
1175 0 0 0
1176 0 0 0
1177 0 0 0
1178 0 0 0
1179 0 0 0
1180 0 0 0
1181 0 0 0
1182 0 0 0
1183 0 0 0
1184 0 0 0
1185 0 0 0
1186 0 0 0
1187 0 0 0
1188 0 0 0
1189 0 0 0
1190 0 0 0
1191 0 0 0
1192 0 0 0
1193 0 0 0
1194 0 0 0
1195 0 0 0
1196 0 0 0
1197 0 0 0
1198 0 0 0
1199 0 0 0
1200 0 0 0
1201 0 0 0
1202 0 0 0
1203 0 0 0
1204 0 0 0
1205 0 0 0
1206 0 0 0
1207 0 0 0
1208 0 0 0
1209 0 0 0
1210 0 0 0
1211 0 0 0
1212 0 0 0
1213 0 0 0
1214 0 0 0
1215 0 0 0
1216 0 0 0
1217 0 0 0
1218 0 0 0
1219 0 0 0
1220 0 0 0
1221 0 0 0
1222 0 0 0
1223 0 0 0
1224 0 0 0
1225 0 0 0
1226 0 0 0
1227 0 0 0
1228 0 0 0
1229 0 0 0
1230 0 0 0
1231 0 0 0
1232 0 0 0
1233 0 0 0
1234 0 0 0
1235 0 0 0
1236 0 0 0
1237 0 0 0
1238 0 0 0
1239 0 0 0
1240 0 0 0
1241 0 0 0
1242 0 0 0
1243 0 0 0
1244 0 0 0
1245 0 0 0
1246 0 0 0
1247 0 0 0
1248 0 0 0
1249 0 0 0
1250 0 0 0
1251 0 0 0
1252 0 0 0
1253 0 0 0
1254 0 0 0
1255 0 0 0
1256 0 0 0
1257 0 0 0
1258 0 0 0
1259 0 0 0
1260 0 0 0
1261 0 0 0
1262 0 0 0
1263 0 0 0
1264 0 0 0
1265 0 0 0
1266 0 0 0
1267 0 0 0
1268 0 0 0
1269 0 0 0
1270 0 0 0
1271 0 0 0
1272 0 0 0
1273 0 0 0
1274 0 0 0
1275 0 0 0
1276 0 0 0
1277 0 0 0
1278 0 0 0
1279 0 0 0
1280 0 0 0
1281 0 0 0
1282 0 0 0
1283 0 0 0
1284 0 0 0
1285 0 0 0
1286 0 0 0
1287 0 0 0
1288 0 0 0
1289 0 0 0
1290 0 0 0

Bonds

1 1 1 2
2 1 2 3
3 1 3 4
4 1 4 5
5 1 5 6
6 1 6 7
7 1 7 8
8 1 8 9
9 1 9 10
10 1 10 11
11 1 11 12
12 1 12 13
13 1 13 14
14 1 14 15
15 1 15 16
16 1 16 17
17 1 17 18
18 1 18 19
19 1 19 20
20 1 20 21
21 1 21 22
22 1 22 23
23 1 23 24
24 1 24 25
25 1 25 26
26 1 26 27
27 1 27 28
28 1 28 29
29 1 29 30
30 1 30 31
31 1 31 32
32 1 32 33
33 1 33 34
34 1 34 35
35 1 35 36
36 1 36 37
37 1 37 38
38 1 38 39
39 1 39 40
40 1 40 41
41 1 41 42
42 1 42 43
43 1 43 44
44 1 44 45
45 1 45 46
46 1 46 47
47 1 47 48
48 1 48 49
49 1 49 50
50 1 50 51
51 1 51 52
52 1 52 53
53 1 53 54
54 1 54 55
55 1 55 56
56 1 56 57
57 1 57 58
58 1 58 59
59 1 59 60
60 1 60 61
61 1 61 62
62 1 62 63
63 1 63 64
64 1 64 65
65 1 65 66
66 1 66 67
67 1 67 68
68 1 68 69
69 1 69 70
70 1 70 71
71 1 71 72
72 1 72 73
73 1 73 74
74 1 74 75
75 1 75 76
76 1 76 77
77 1 77 78
78 1 78 79
79 1 79 80
80 1 80 81
81 1 81 82
82 1 82 83
83 1 83 84
84 1 84 85
85 1 85 86
86 1 86 87
87 1 87 88
88 1 88 89
89 1 89 90
90 1 90 91
91 1 91 92
92 1 92 93
93 1 93 94
94 1 94 95
95 1 95 96
96 1 96 97
97 1 97 98
98 1 98 99
99 1 99 100
100 1 100 101
101 1 101 102
102 1 102 103
103 1 103 104
104 1 104 105
105 1 105 106
106 1 106 107
107 1 107 108
108 1 108 109
109 1 109 110
110 1 110 111
111 1 111 112
112 1 112 113
113 1 113 114
114 1 114 115
115 1 115 116
116 1 116 117
117 1 117 118
118 1 118 119
119 1 119 120
120 1 120 121
121 1 121 122
122 1 122 123
123 1 124 125
124 1 125 126
125 1 126 127
126 1 127 128
127 1 128 129
128 1 129 130
129 1 130 131
130 1 131 132
131 1 132 133
132 1 133 134
133 1 134 135
134 1 135 136
135 1 136 137
136 1 137 138
137 1 138 139
138 1 139 140
139 1 140 141
140 1 141 142
141 1 142 143
142 1 143 144
143 1 144 145
144 1 145 146
145 1 146 147
146 1 147 148
147 1 148 149
148 1 149 150
149 1 150 151
150 1 151 152
151 1 152 153
152 1 153 154
153 1 154 155
154 1 155 156
155 1 156 157
156 1 157 158
157 1 158 159
158 1 159 160
159 1 160 161
160 1 161 162
161 1 162 163
162 1 163 164
163 1 164 165
164 1 165 166
165 1 166 167
166 1 167 168
167 1 168 169
168 1 169 170
169 1 170 171
170 1 171 172
171 1 172 173
172 1 173 174
173 1 174 175
174 1 175 176
175 1 176 177
176 1 177 178
177 1 178 179
178 1 179 180
179 1 180 181
180 1 181 182
181 1 182 183
182 1 183 184
183 1 184 185
184 1 185 186
185 1 186 187
186 1 187 188
187 1 188 189
188 1 189 190
189 1 190 191
190 1 191 192
191 1 192 193
192 1 193 194
193 1 194 195
194 1 195 196
195 1 196 197
196 1 197 198
197 1 198 199
198 1 199 200
199 1 200 201
200 1 201 202
201 1 202 203
202 1 203 204
203 1 204 205
204 1 205 206
205 1 206 207
206 1 207 208
207 1 208 209
208 1 209 210
209 1 210 211
210 1 211 212
211 1 212 213
212 1 213 214
213 1 214 215
214 1 215 216
215 1 216 217
216 1 217 218
217 1 218 219
218 1 219 220
219 1 220 221
220 1 221 222
221 1 222 223
222 1 223 224
223 1 224 225
224 1 225 226
225 1 226 227
226 1 227 228
227 1 228 229
228 1 229 230
229 1 230 231
230 1 231 232
231 1 232 233
232 1 233 234
233 1 234 235
234 1 235 236
235 1 236 237
236 1 237 238
237 1 238 239
238 1 239 240
239 1 240 241
240 1 241 242
241 1 242 243
242 1 243 244
243 1 244 245
244 1 245 246
245 1 246 247
246 1 247 248
247 1 248 249
248 1 249 250
249 1 250 251
250 1 251 252
251 1 252 253
252 1 253 254
253 1 254 255
254 1 255 256
255 1 256 257
256 1 257 258
257 1 258 259
258 1 259 260
259 1 260 261
260 1 261 262
261 1 262 263
262 1 263 264
263 1 264 265
264 1 265 266
265 1 266 267
266 1 267 268
267 1 268 269
268 1 269 270
269 1 270 271
270 1 271 272
271 1 272 273
272 1 273 274
273 1 274 275
274 1 275 276
275 1 276 277
276 1 277 278
277 1 278 279
278 1 279 280
279 1 280 281
280 1 281 282
281 1 282 283
282 1 283 284
283 1 284 285
284 1 285 286
285 1 286 287
286 1 287 288
287 1 288 289
288 1 289 290
289 1 290 291
290 1 291 292
291 1 292 293
292 1 293 294
293 1 294 295
294 1 295 296
295 1 296 297
296 1 297 298
297 1 298 299
298 1 299 300
299 1 300 301
300 1 301 302
301 1 302 303
302 1 303 304
303 1 304 305
304 1 305 306
305 1 306 307
306 1 307 308
307 1 308 309
308 1 309 310
309 1 310 311
310 1 311 312
311 1 312 313
312 1 313 314
313 1 314 315
314 1 315 316
315 1 316 317
316 1 317 318
317 1 318 319
318 1 319 320
319 1 320 321
320 1 321 322
321 1 322 323
322 1 323 324
323 1 324 325
324 1 325 326
325 1 326 327
326 1 327 328
327 1 328 329
328 1 329 330
329 1 330 331
330 1 331 332
331 1 332 333
332 1 333 334
333 1 334 335
334 1 335 336
335 1 336 337
336 1 337 338
337 1 338 339
338 1 339 340
339 1 340 341
340 1 341 342
341 1 342 343
342 1 343 344
343 1 344 345
344 1 345 346
345 1 346 347
346 1 347 348
347 1 348 349
348 1 349 350
349 1 350 351
350 1 351 352
351 1 352 353
352 1 353 354
353 1 354 355
354 1 355 356
355 1 356 357
356 1 357 358
357 1 358 359
358 1 359 360
359 1 360 361
360 1 361 362
361 1 362 363
362 1 363 364
363 1 364 365
364 1 365 366
365 1 366 367
366 1 367 368
367 1 368 369
368 1 369 370

Angles

1 1 1 2 3
2 1 2 3 4
3 1 3 4 5
4 1 4 5 6
5 1 5 6 7
6 1 6 7 8
7 1 7 8 9
8 1 8 9 10
9 1 9 10 11
10 1 10 11 12
11 1 11 12 13
12 1 12 13 14
13 1 13 14 15
14 1 14 15 16
15 1 15 16 17
16 1 16 17 18
17 1 17 18 19
18 1 18 19 20
19 1 19 20 21
20 1 20 21 22
21 1 21 22 23
22 1 22 23 24
23 1 23 24 25
24 1 24 25 26
25 1 25 26 27
26 1 26 27 28
27 1 27 28 29
28 1 28 29 30
29 1 29 30 31
30 1 30 31 32
31 1 31 32 33
32 1 32 33 34
33 1 33 34 35
34 1 34 35 36
35 1 35 36 37
36 1 36 37 38
37 1 37 38 39
38 1 38 39 40
39 1 39 40 41
40 1 40 41 42
41 1 41 42 43
42 1 42 43 44
43 1 43 44 45
44 1 44 45 46
45 1 45 46 47
46 1 46 47 48
47 1 47 48 49
48 1 48 49 50
49 1 49 50 51
50 1 50 51 52
51 1 51 52 53
52 1 52 53 54
53 1 53 54 55
54 1 54 55 56
55 1 55 56 57
56 1 56 57 58
57 1 57 58 59
58 1 58 59 60
59 1 59 60 61
60 1 60 61 62
61 1 61 62 63
62 1 62 63 64
63 1 63 64 65
64 1 64 65 66
65 1 65 66 67
66 1 66 67 68
67 1 67 68 69
68 1 68 69 70
69 1 69 70 71
70 1 70 71 72
71 1 71 72 73
72 1 72 73 74
73 1 73 74 75
74 1 74 75 76
75 1 75 76 77
76 1 76 77 78
77 1 77 78 79
78 1 78 79 80
79 1 79 80 81
80 1 80 81 82
81 1 81 82 83
82 1 82 83 84
83 1 83 84 85
84 1 84 85 86
85 1 85 86 87
86 1 86 87 88
87 1 87 88 89
88 1 88 89 90
89 1 89 90 91
90 1 90 91 92
91 1 91 92 93
92 1 92 93 94
93 1 93 94 95
94 1 94 95 96
95 1 95 96 97
96 1 96 97 98
97 1 97 98 99
98 1 98 99 100
99 1 99 100 101
100 1 100 101 102
101 1 101 102 103
102 1 102 103 104
103 1 103 104 105
104 1 104 105 106
105 1 105 106 107
106 1 106 107 108
107 1 107 108 109
108 1 108 109 110
109 1 109 110 111
110 1 110 111 112
111 1 111 112 113
112 1 112 113 114
113 1 113 114 115
114 1 114 115 116
115 1 115 116 117
116 1 116 117 118
117 1 117 118 119
118 1 118 119 120
119 1 119 120 121
120 1 120 121 122
121 1 121 122 123
122 1 124 125 126
123 1 125 126 127
124 1 126 127 128
125 1 127 128 129
126 1 128 129 130
127 1 129 130 131
128 1 130 131 132
129 1 131 132 133
130 1 132 133 134
131 1 133 134 135
132 1 134 135 136
133 1 135 136 137
134 1 136 137 138
135 1 137 138 139
136 1 138 139 140
137 1 139 140 141
138 1 140 141 142
139 1 141 142 143
140 1 142 143 144
141 1 143 144 145
142 1 144 145 146
143 1 145 146 147
144 1 146 147 148
145 1 147 148 149
146 1 148 149 150
147 1 149 150 151
148 1 150 151 152
149 1 151 152 153
150 1 152 153 154
151 1 153 154 155
152 1 154 155 156
153 1 155 156 157
154 1 156 157 158
155 1 157 158 159
156 1 158 159 160
157 1 159 160 161
158 1 160 161 162
159 1 161 162 163
160 1 162 163 164
161 1 163 164 165
162 1 164 165 166
163 1 165 166 167
164 1 166 167 168
165 1 167 168 169
166 1 168 169 170
167 1 169 170 171
168 1 170 171 172
169 1 171 172 173
170 1 172 173 174
171 1 173 174 175
172 1 174 175 176
173 1 175 176 177
174 1 176 177 178
175 1 177 178 179
176 1 178 179 180
177 1 179 180 181
178 1 180 181 182
179 1 181 182 183
180 1 182 183 184
181 1 183 184 185
182 1 184 185 186
183 1 185 186 187
184 1 186 187 188
185 1 187 188 189
186 1 188 189 190
187 1 189 190 191
188 1 190 191 192
189 1 191 192 193
190 1 192 193 194
191 1 193 194 195
192 1 194 195 196
193 1 195 196 197
194 1 196 197 198
195 1 197 198 199
196 1 198 199 200
197 1 199 200 201
198 1 200 201 202
199 1 201 202 203
200 1 202 203 204
201 1 203 204 205
202 1 204 205 206
203 1 205 206 207
204 1 206 207 208
205 1 207 208 209
206 1 208 209 210
207 1 209 210 211
208 1 210 211 212
209 1 211 212 213
210 1 212 213 214
211 1 213 214 215
212 1 214 215 216
213 1 215 216 217
214 1 216 217 218
215 1 217 218 219
216 1 218 219 220
217 1 219 220 221
218 1 220 221 222
219 1 221 222 223
220 1 222 223 224
221 1 223 224 225
222 1 224 225 226
223 1 225 226 227
224 1 226 227 228
225 1 227 228 229
226 1 228 229 230
227 1 229 230 231
228 1 230 231 232
229 1 231 232 233
230 1 232 233 234
231 1 233 234 235
232 1 234 235 236
233 1 235 236 237
234 1 236 237 238
235 1 237 238 239
236 1 238 239 240
237 1 239 240 241
238 1 240 241 242
239 1 241 242 243
240 1 242 243 244
241 1 243 244 245
242 1 244 245 246
243 1 245 246 247
244 1 246 247 248
245 1 247 248 249
246 1 248 249 250
247 1 249 250 251
248 1 250 251 252
249 1 251 252 253
250 1 252 253 254
251 1 253 254 255
252 1 254 255 256
253 1 255 256 257
254 1 256 257 258
255 1 257 258 259
256 1 258 259 260
257 1 259 260 261
258 1 260 261 262
259 1 261 262 263
260 1 262 263 264
261 1 263 264 265
262 1 264 265 266
263 1 265 266 267
264 1 266 267 268
265 1 267 268 269
266 1 268 269 270
267 1 269 270 271
268 1 270 271 272
269 1 271 272 273
270 1 272 273 274
271 1 273 274 275
272 1 274 275 276
273 1 275 276 277
274 1 276 277 278
275 1 277 278 279
276 1 278 279 280
277 1 279 280 281
278 1 280 281 282
279 1 281 282 283
280 1 282 283 284
281 1 283 284 285
282 1 284 285 286
283 1 285 286 287
284 1 286 287 288
285 1 287 288 289
286 1 288 289 290
287 1 289 290 291
288 1 290 291 292
289 1 291 292 293
290 1 292 293 294
291 1 293 294 295
292 1 294 295 296
293 1 295 296 297
294 1 296 297 298
295 1 297 298 299
296 1 298 299 300
297 1 299 300 301
298 1 300 301 302
299 1 301 302 303
300 1 302 303 304
301 1 303 304 305
302 1 304 305 306
303 1 305 306 307
304 1 306 307 308
305 1 307 308 309
306 1 308 309 310
307 1 309 310 311
308 1 310 311 312
309 1 311 312 313
310 1 312 313 314
311 1 313 314 315
312 1 314 315 316
313 1 315 316 317
314 1 316 317 318
315 1 317 318 319
316 1 318 319 320
317 1 319 320 321
318 1 320 321 322
319 1 321 322 323
320 1 322 323 324
321 1 323 324 325
322 1 324 325 326
323 1 325 326 327
324 1 326 327 328
325 1 327 328 329
326 1 328 329 330
327 1 329 330 331
328 1 330 331 332
329 1 331 332 333
330 1 332 333 334
331 1 333 334 335
332 1 334 335 336
333 1 335 336 337
334 1 336 337 338
335 1 337 338 339
336 1 338 339 340
337 1 339 340 341
338 1 340 341 342
339 1 341 342 343
340 1 342 343 344
341 1 343 344 345
342 1 344 345 346
343 1 345 346 347
344 1 346 347 348
345 1 347 348 349
346 1 348 349 350
347 1 349 350 351
348 1 350 351 352
349 1 351 352 353
350 1 352 353 354
351 1 353 354 355
352 1 354 355 356
353 1 355 356 357
354 1 356 357 358
355 1 357 358 359
356 1 358 359 360
357 1 359 360 361
358 1 360 361 362
359 1 361 362 363
360 1 362 363 364
361 1 363 364 365
362 1 364 365 366
363 1 365 366 367
364 1 366 367 368
365 1 367 368 369
366 1 368 369 370
