LAMMPS input file for a BOX simulation to test induced gene movement in a small shoe box.

1290 atoms
368 bonds
366 angles

11 atom types
2 bond types
2 angle types

-13.0 13.0 xlo xhi
-9.5 9.5 ylo yhi
-7.0 7.0 zlo zhi

Masses

1 1
2 1
3 1
4 1
5 1
6 1
7 1
8 1
9 1
10 1
11 1

Atoms

1 1 1 -11 -3.75 0 0 0 0
2 1 1 -11 -3.6885245901639343 0 0 0 0
3 1 1 -11 -3.627049180327869 0 0 0 0
4 1 1 -11 -3.5655737704918034 0 0 0 0
5 1 1 -11 -3.5040983606557377 0 0 0 0
6 1 1 -11 -3.442622950819672 0 0 0 0
7 1 1 -11 -3.3811475409836067 0 0 0 0
8 1 1 -11 -3.319672131147541 0 0 0 0
9 1 1 -11 -3.2581967213114753 0 0 0 0
10 1 1 -11 -3.19672131147541 0 0 0 0
11 1 1 -11 -3.1352459016393444 0 0 0 0
12 1 1 -11 -3.0737704918032787 0 0 0 0
13 1 1 -11 -3.0122950819672134 0 0 0 0
14 1 1 -11 -2.9508196721311477 0 0 0 0
15 1 1 -11 -2.889344262295082 0 0 0 0
16 1 1 -11 -2.8278688524590163 0 0 0 0
17 1 1 -11 -2.7663934426229506 0 0 0 0
18 1 1 -11 -2.7049180327868854 0 0 0 0
19 1 1 -11 -2.6434426229508197 0 0 0 0
20 1 1 -11 -2.581967213114754 0 0 0 0
21 1 1 -11 -2.5204918032786887 0 0 0 0
22 1 1 -11 -2.459016393442623 0 0 0 0
23 1 1 -11 -2.3975409836065573 0 0 0 0
24 1 1 -11 -2.336065573770492 0 0 0 0
25 1 1 -11 -2.2745901639344264 0 0 0 0
26 1 1 -11 -2.2131147540983607 0 0 0 0
27 1 1 -11 -2.1516393442622954 0 0 0 0
28 1 1 -11 -2.0901639344262293 0 0 0 0
29 1 1 -11 -2.028688524590164 0 0 0 0
30 1 1 -11 -1.9672131147540983 0 0 0 0
31 1 1 -11 -1.9057377049180328 0 0 0 0
32 1 1 -11 -1.8442622950819672 0 0 0 0
33 1 1 -11 -1.7827868852459017 0 0 0 0
34 1 1 -11 -1.721311475409836 0 0 0 0
35 1 1 -11 -1.6598360655737707 0 0 0 0
36 1 1 -11 -1.598360655737705 0 0 0 0
37 1 1 -11 -1.5368852459016393 0 0 0 0
38 1 9 -11 -1.4754098360655736 0 0 0 0
39 1 9 -11 -1.4139344262295084 0 0 0 0
40 1 9 -11 -1.3524590163934427 0 0 0 0
41 1 9 -11 -1.290983606557377 0 0 0 0
42 1 9 -11 -1.2295081967213117 0 0 0 0
43 1 9 -11 -1.168032786885246 0 0 0 0
44 1 9 -11 -1.1065573770491803 0 0 0 0
45 1 9 -11 -1.0450819672131146 0 0 0 0
46 1 9 -11 -0.9836065573770494 0 0 0 0
47 1 9 -11 -0.9221311475409837 0 0 0 0
48 1 9 -11 -0.860655737704918 0 0 0 0
49 1 9 -11 -0.7991803278688527 0 0 0 0
50 1 9 -11 -0.737704918032787 0 0 0 0
51 1 9 -11 -0.6762295081967213 0 0 0 0
52 1 9 -11 -0.6147540983606556 0 0 0 0
53 1 9 -11 -0.5532786885245904 0 0 0 0
54 1 9 -11 -0.4918032786885247 0 0 0 0
55 1 9 -11 -0.430327868852459 0 0 0 0
56 1 9 -11 -0.3688524590163933 0 0 0 0
57 1 9 -11 -0.30737704918032804 0 0 0 0
58 1 9 -11 -0.24590163934426235 0 0 0 0
59 1 9 -11 -0.18442622950819665 0 0 0 0
60 1 9 -11 -0.1229508196721314 0 0 0 0
61 1 9 -11 -0.0614754098360657 0 0 0 0
62 1 9 -11 0.0 0 0 0 0
63 1 9 -11 0.0614754098360657 0 0 0 0
64 1 9 -11 0.12295081967213095 0 0 0 0
65 1 9 -11 0.18442622950819665 0 0 0 0
66 1 9 -11 0.24590163934426235 0 0 0 0
67 1 9 -11 0.30737704918032804 0 0 0 0
68 1 9 -11 0.3688524590163933 0 0 0 0
69 1 9 -11 0.43032786885245855 0 0 0 0
70 1 9 -11 0.4918032786885247 0 0 0 0
71 1 9 -11 0.55327868852459 0 0 0 0
72 1 9 -11 0.6147540983606561 0 0 0 0
73 1 9 -11 0.6762295081967213 0 0 0 0
74 1 9 -11 0.7377049180327866 0 0 0 0
75 1 9 -11 0.7991803278688527 0 0 0 0
76 1 9 -11 0.860655737704918 0 0 0 0
77 1 9 -11 0.9221311475409832 0 0 0 0
78 1 9 -11 0.9836065573770494 0 0 0 0
79 1 9 -11 1.0450819672131146 0 0 0 0
80 1 9 -11 1.10655737704918 0 0 0 0
81 1 9 -11 1.168032786885246 0 0 0 0
82 1 9 -11 1.2295081967213113 0 0 0 0
83 1 9 -11 1.2909836065573765 0 0 0 0
84 1 9 -11 1.3524590163934427 0 0 0 0
85 1 9 -11 1.413934426229508 0 0 0 0
86 1 9 -11 1.475409836065574 0 0 0 0
87 1 9 -11 1.5368852459016393 0 0 0 0
88 1 1 -11 1.5983606557377046 0 0 0 0
89 1 1 -11 1.6598360655737707 0 0 0 0
90 1 1 -11 1.721311475409836 0 0 0 0
91 1 1 -11 1.7827868852459012 0 0 0 0
92 1 1 -11 1.8442622950819674 0 0 0 0
93 1 1 -11 1.9057377049180326 0 0 0 0
94 1 1 -11 1.9672131147540979 0 0 0 0
95 1 1 -11 2.028688524590164 0 0 0 0
96 1 1 -11 2.0901639344262293 0 0 0 0
97 1 1 -11 2.1516393442622945 0 0 0 0
98 1 1 -11 2.2131147540983607 0 0 0 0
99 1 1 -11 2.274590163934426 0 0 0 0
100 1 1 -11 2.336065573770492 0 0 0 0
101 1 1 -11 2.3975409836065573 0 0 0 0
102 1 1 -11 2.4590163934426226 0 0 0 0
103 1 1 -11 2.5204918032786887 0 0 0 0
104 1 1 -11 2.581967213114754 0 0 0 0
105 1 1 -11 2.643442622950819 0 0 0 0
106 1 1 -11 2.7049180327868854 0 0 0 0
107 1 1 -11 2.7663934426229506 0 0 0 0
108 1 1 -11 2.827868852459016 0 0 0 0
109 1 1 -11 2.889344262295082 0 0 0 0
110 1 1 -11 2.9508196721311473 0 0 0 0
111 1 1 -11 3.0122950819672134 0 0 0 0
112 1 1 -11 3.0737704918032787 0 0 0 0
113 1 1 -11 3.135245901639344 0 0 0 0
114 1 1 -11 3.19672131147541 0 0 0 0
115 1 1 -11 3.2581967213114753 0 0 0 0
116 1 1 -11 3.3196721311475406 0 0 0 0
117 1 1 -11 3.3811475409836067 0 0 0 0
118 1 1 -11 3.442622950819672 0 0 0 0
119 1 1 -11 3.504098360655737 0 0 0 0
120 1 1 -11 3.5655737704918034 0 0 0 0
121 1 1 -11 3.6270491803278686 0 0 0 0
122 1 1 -11 3.688524590163934 0 0 0 0
123 1 1 -11 3.75 0 0 0 0
124 2 1 11 -3.75 0 0 0 0
125 2 1 11 -3.7195121951219514 0 0 0 0
126 2 1 11 -3.6890243902439024 0 0 0 0
127 2 1 11 -3.658536585365854 0 0 0 0
128 2 1 11 -3.6280487804878048 0 0 0 0
129 2 1 11 -3.597560975609756 0 0 0 0
130 2 1 11 -3.567073170731707 0 0 0 0
131 2 1 11 -3.5365853658536586 0 0 0 0
132 2 1 11 -3.5060975609756095 0 0 0 0
133 2 1 11 -3.475609756097561 0 0 0 0
134 2 1 11 -3.4451219512195124 0 0 0 0
135 2 1 11 -3.4146341463414633 0 0 0 0
136 2 1 11 -3.3841463414634148 0 0 0 0
137 2 1 11 -3.3536585365853657 0 0 0 0
138 2 1 11 -3.323170731707317 0 0 0 0
139 2 1 11 -3.2926829268292686 0 0 0 0
140 2 1 11 -3.2621951219512195 0 0 0 0
141 2 1 11 -3.2317073170731705 0 0 0 0
142 2 1 11 -3.201219512195122 0 0 0 0
143 2 1 11 -3.1707317073170733 0 0 0 0
144 2 1 11 -3.1402439024390243 0 0 0 0
145 2 1 11 -3.1097560975609757 0 0 0 0
146 2 1 11 -3.0792682926829267 0 0 0 0
147 2 1 11 -3.048780487804878 0 0 0 0
148 2 1 11 -3.0182926829268295 0 0 0 0
149 2 1 11 -2.9878048780487805 0 0 0 0
150 2 1 11 -2.9573170731707314 0 0 0 0
151 2 1 11 -2.926829268292683 0 0 0 0
152 2 1 11 -2.8963414634146343 0 0 0 0
153 2 1 11 -2.8658536585365852 0 0 0 0
154 2 1 11 -2.8353658536585367 0 0 0 0
155 2 1 11 -2.8048780487804876 0 0 0 0
156 2 1 11 -2.774390243902439 0 0 0 0
157 2 1 11 -2.7439024390243905 0 0 0 0
158 2 1 11 -2.7134146341463414 0 0 0 0
159 2 1 11 -2.6829268292682924 0 0 0 0
160 2 1 11 -2.652439024390244 0 0 0 0
161 2 1 11 -2.6219512195121952 0 0 0 0
162 2 1 11 -2.5914634146341466 0 0 0 0
163 2 1 11 -2.5609756097560976 0 0 0 0
164 2 1 11 -2.5304878048780486 0 0 0 0
165 2 1 11 -2.5 0 0 0 0
166 2 1 11 -2.4695121951219514 0 0 0 0
167 2 1 11 -2.4390243902439024 0 0 0 0
168 2 1 11 -2.408536585365854 0 0 0 0
169 2 1 11 -2.3780487804878048 0 0 0 0
170 2 1 11 -2.347560975609756 0 0 0 0
171 2 1 11 -2.3170731707317076 0 0 0 0
172 2 1 11 -2.2865853658536586 0 0 0 0
173 2 1 11 -2.2560975609756095 0 0 0 0
174 2 1 11 -2.225609756097561 0 0 0 0
175 2 1 11 -2.1951219512195124 0 0 0 0
176 2 1 11 -2.1646341463414633 0 0 0 0
177 2 1 11 -2.1341463414634148 0 0 0 0
178 2 1 11 -2.1036585365853657 0 0 0 0
179 2 1 11 -2.073170731707317 0 0 0 0
180 2 1 11 -2.0426829268292686 0 0 0 0
181 2 1 11 -2.0121951219512195 0 0 0 0
182 2 1 11 -1.9817073170731707 0 0 0 0
183 2 1 11 -1.951219512195122 0 0 0 0
184 2 1 11 -1.9207317073170733 0 0 0 0
185 2 1 11 -1.8902439024390245 0 0 0 0
186 2 1 11 -1.8597560975609757 0 0 0 0
187 2 1 11 -1.829268292682927 0 0 0 0
188 2 1 11 -1.798780487804878 0 0 0 0
189 2 1 11 -1.7682926829268293 0 0 0 0
190 2 1 11 -1.7378048780487805 0 0 0 0
191 2 1 11 -1.707317073170732 0 0 0 0
192 2 1 11 -1.6768292682926829 0 0 0 0
193 2 1 11 -1.6463414634146343 0 0 0 0
194 2 1 11 -1.6158536585365852 0 0 0 0
195 2 1 11 -1.5853658536585367 0 0 0 0
196 2 1 11 -1.5548780487804876 0 0 0 0
197 2 1 11 -1.524390243902439 0 0 0 0
198 2 1 11 -1.4939024390243905 0 0 0 0
199 2 1 11 -1.4634146341463414 0 0 0 0
200 2 1 11 -1.4329268292682928 0 0 0 0
201 2 1 11 -1.4024390243902438 0 0 0 0
202 2 1 11 -1.3719512195121952 0 0 0 0
203 2 1 11 -1.3414634146341462 0 0 0 0
204 2 1 11 -1.3109756097560976 0 0 0 0
205 2 1 11 -1.280487804878049 0 0 0 0
206 2 1 11 -1.25 0 0 0 0
207 2 1 11 -1.2195121951219514 0 0 0 0
208 2 1 11 -1.1890243902439024 0 0 0 0
209 2 1 11 -1.1585365853658538 0 0 0 0
210 2 1 11 -1.1280487804878048 0 0 0 0
211 2 1 11 -1.0975609756097562 0 0 0 0
212 2 1 11 -1.0670731707317076 0 0 0 0
213 2 1 11 -1.0365853658536586 0 0 0 0
214 2 1 11 -1.00609756097561 0 0 0 0
215 2 1 11 -0.975609756097561 0 0 0 0
216 2 1 11 -0.9451219512195124 0 0 0 0
217 2 1 11 -0.9146341463414633 0 0 0 0
218 2 1 11 -0.8841463414634148 0 0 0 0
219 2 1 11 -0.8536585365853657 0 0 0 0
220 2 1 11 -0.8231707317073171 0 0 0 0
221 2 1 11 -0.7926829268292686 0 0 0 0
222 2 1 11 -0.7621951219512195 0 0 0 0
223 2 1 11 -0.7317073170731709 0 0 0 0
224 2 1 11 -0.7012195121951219 0 0 0 0
225 2 1 11 -0.6707317073170733 0 0 0 0
226 2 1 11 -0.6402439024390243 0 0 0 0
227 2 1 11 -0.6097560975609757 0 0 0 0
228 2 1 11 -0.5792682926829267 0 0 0 0
229 2 1 11 -0.5487804878048781 0 0 0 0
230 2 1 11 -0.5182926829268295 0 0 0 0
231 2 1 11 -0.4878048780487805 0 0 0 0
232 2 1 11 -0.4573170731707319 0 0 0 0
233 2 1 11 -0.42682926829268286 0 0 0 0
234 2 1 11 -0.3963414634146343 0 0 0 0
235 2 1 11 -0.36585365853658525 0 0 0 0
236 2 1 11 -0.33536585365853666 0 0 0 0
237 2 1 11 -0.3048780487804881 0 0 0 0
238 2 1 11 -0.27439024390243905 0 0 0 0
239 2 1 11 -0.24390243902439046 0 0 0 0
240 2 1 11 -0.21341463414634143 0 0 0 0
241 2 1 11 -0.18292682926829285 0 0 0 0
242 2 1 11 -0.15243902439024382 0 0 0 0
243 2 1 11 -0.12195121951219523 0 0 0 0
244 2 10 0 -0.09146341463414664 0 0 0 0
245 2 10 0 -0.060975609756097615 0 0 0 0
246 2 10 0 -0.03048780487804903 0 0 0 0
247 2 10 0 0.0 0 0 0 0
248 2 2 0 0.030487804878048586 0 0 0 0
249 2 2 0 0.060975609756097615 0 0 0 0
250 2 2 0 0.0914634146341462 0 0 0 0
251 2 2 0 0.12195121951219523 0 0 0 0
252 2 2 0 0.15243902439024382 0 0 0 0
253 2 1 11 0.1829268292682924 0 0 0 0
254 2 1 11 0.21341463414634143 0 0 0 0
255 2 1 11 0.24390243902439002 0 0 0 0
256 2 1 11 0.27439024390243905 0 0 0 0
257 2 1 11 0.30487804878048763 0 0 0 0
258 2 1 11 0.3353658536585362 0 0 0 0
259 2 1 11 0.3658536585365857 0 0 0 0
260 2 1 11 0.3963414634146343 0 0 0 0
261 2 1 11 0.42682926829268286 0 0 0 0
262 2 1 11 0.45731707317073145 0 0 0 0
263 2 1 11 0.48780487804878003 0 0 0 0
264 2 1 11 0.5182926829268295 0 0 0 0
265 2 1 11 0.5487804878048781 0 0 0 0
266 2 1 11 0.5792682926829267 0 0 0 0
267 2 1 11 0.6097560975609753 0 0 0 0
268 2 1 11 0.6402439024390247 0 0 0 0
269 2 1 11 0.6707317073170733 0 0 0 0
270 2 1 11 0.7012195121951219 0 0 0 0
271 2 1 11 0.7317073170731705 0 0 0 0
272 2 1 11 0.7621951219512191 0 0 0 0
273 2 1 11 0.7926829268292686 0 0 0 0
274 2 1 11 0.8231707317073171 0 0 0 0
275 2 1 11 0.8536585365853657 0 0 0 0
276 2 1 11 0.8841463414634143 0 0 0 0
277 2 1 11 0.9146341463414629 0 0 0 0
278 2 1 11 0.9451219512195124 0 0 0 0
279 2 1 11 0.975609756097561 0 0 0 0
280 2 1 11 1.0060975609756095 0 0 0 0
281 2 1 11 1.0365853658536581 0 0 0 0
282 2 1 11 1.0670731707317076 0 0 0 0
283 2 1 11 1.0975609756097562 0 0 0 0
284 2 1 11 1.1280487804878048 0 0 0 0
285 2 1 11 1.1585365853658534 0 0 0 0
286 2 1 11 1.189024390243902 0 0 0 0
287 2 1 11 1.2195121951219514 0 0 0 0
288 2 1 11 1.25 0 0 0 0
289 2 1 11 1.2804878048780486 0 0 0 0
290 2 1 11 1.3109756097560972 0 0 0 0
291 2 1 11 1.3414634146341466 0 0 0 0
292 2 1 11 1.3719512195121952 0 0 0 0
293 2 1 11 1.4024390243902438 0 0 0 0
294 2 1 11 1.4329268292682924 0 0 0 0
295 2 1 11 1.463414634146341 0 0 0 0
296 2 1 11 1.4939024390243905 0 0 0 0
297 2 1 11 1.524390243902439 0 0 0 0
298 2 1 11 1.5548780487804876 0 0 0 0
299 2 1 11 1.5853658536585362 0 0 0 0
300 2 1 11 1.6158536585365848 0 0 0 0
301 2 1 11 1.6463414634146343 0 0 0 0
302 2 1 11 1.6768292682926829 0 0 0 0
303 2 1 11 1.7073170731707314 0 0 0 0
304 2 1 11 1.73780487804878 0 0 0 0
305 2 1 11 1.7682926829268295 0 0 0 0
306 2 1 11 1.798780487804878 0 0 0 0
307 2 1 11 1.8292682926829267 0 0 0 0
308 2 1 11 1.8597560975609753 0 0 0 0
309 2 1 11 1.8902439024390238 0 0 0 0
310 2 1 11 1.9207317073170733 0 0 0 0
311 2 1 11 1.951219512195122 0 0 0 0
312 2 1 11 1.9817073170731705 0 0 0 0
313 2 1 11 2.012195121951219 0 0 0 0
314 2 1 11 2.0426829268292686 0 0 0 0
315 2 1 11 2.073170731707317 0 0 0 0
316 2 1 11 2.1036585365853657 0 0 0 0
317 2 1 11 2.1341463414634143 0 0 0 0
318 2 1 11 2.164634146341463 0 0 0 0
319 2 1 11 2.1951219512195124 0 0 0 0
320 2 1 11 2.225609756097561 0 0 0 0
321 2 1 11 2.2560975609756095 0 0 0 0
322 2 1 11 2.286585365853658 0 0 0 0
323 2 1 11 2.3170731707317076 0 0 0 0
324 2 1 11 2.347560975609756 0 0 0 0
325 2 1 11 2.3780487804878048 0 0 0 0
326 2 1 11 2.4085365853658534 0 0 0 0
327 2 1 11 2.439024390243902 0 0 0 0
328 2 1 11 2.4695121951219514 0 0 0 0
329 2 1 11 2.5 0 0 0 0
330 2 1 11 2.5304878048780486 0 0 0 0
331 2 1 11 2.560975609756097 0 0 0 0
332 2 1 11 2.5914634146341466 0 0 0 0
333 2 1 11 2.6219512195121952 0 0 0 0
334 2 1 11 2.652439024390244 0 0 0 0
335 2 1 11 2.6829268292682924 0 0 0 0
336 2 1 11 2.713414634146341 0 0 0 0
337 2 1 11 2.7439024390243905 0 0 0 0
338 2 1 11 2.774390243902439 0 0 0 0
339 2 1 11 2.8048780487804876 0 0 0 0
340 2 1 11 2.835365853658536 0 0 0 0
341 2 1 11 2.865853658536585 0 0 0 0
342 2 1 11 2.8963414634146343 0 0 0 0
343 2 1 11 2.926829268292683 0 0 0 0
344 2 1 11 2.9573170731707314 0 0 0 0
345 2 1 11 2.98780487804878 0 0 0 0
346 2 1 11 3.0182926829268295 0 0 0 0
347 2 1 11 3.048780487804878 0 0 0 0
348 2 1 11 3.0792682926829267 0 0 0 0
349 2 1 11 3.1097560975609753 0 0 0 0
350 2 1 11 3.140243902439024 0 0 0 0
351 2 1 11 3.1707317073170733 0 0 0 0
352 2 1 11 3.201219512195122 0 0 0 0
353 2 1 11 3.2317073170731705 0 0 0 0
354 2 1 11 3.262195121951219 0 0 0 0
355 2 1 11 3.2926829268292686 0 0 0 0
356 2 1 11 3.323170731707317 0 0 0 0
357 2 1 11 3.3536585365853657 0 0 0 0
358 2 1 11 3.3841463414634143 0 0 0 0
359 2 1 11 3.414634146341463 0 0 0 0
360 2 1 11 3.4451219512195124 0 0 0 0
361 2 1 11 3.475609756097561 0 0 0 0
362 2 1 11 3.5060975609756095 0 0 0 0
363 2 1 11 3.536585365853658 0 0 0 0
364 2 1 11 3.5670731707317067 0 0 0 0
365 2 1 11 3.597560975609756 0 0 0 0
366 2 1 11 3.6280487804878048 0 0 0 0
367 2 1 11 3.6585365853658534 0 0 0 0
368 2 1 11 3.689024390243902 0 0 0 0
369 2 1 11 3.7195121951219514 0 0 0 0
370 2 1 11 3.75 0 0 0 0
371 3 4 8.83985 2.964959 -4.695823 0 0 0
372 4 4 8.525181 7.296713 -1.439757 0 0 0
373 5 4 2.275835 -4.236861 2.503488 0 0 0
374 6 4 4.556296 5.259129 2.342436 0 0 0
375 7 4 -2.662282 4.880866 -3.299589 0 0 0
376 8 4 5.712426 -0.381591 2.093576 0 0 0
377 9 4 5.520727 -3.094411 0.581768 0 0 0
378 10 4 1.984719 -3.359815 3.4681 0 0 0
379 11 4 -2.298927 4.64554 2.631167 0 0 0
380 12 4 9.125336 5.614365 1.915263 0 0 0
381 13 4 -7.281743 -1.885997 -1.836372 0 0 0
382 14 4 0.321793 3.494986 -3.803592 0 0 0
383 15 4 0.612682 4.12924 0.261597 0 0 0
384 16 4 7.900962 5.17661 1.791397 0 0 0
385 17 4 2.002076 0.289961 -2.258427 0 0 0
386 18 4 7.485861 -4.905992 -1.017836 0 0 0
387 19 4 -7.044586 2.433499 0.586048 0 0 0
388 20 4 -4.331314 3.015433 -3.435413 0 0 0
389 21 4 2.778311 7.317413 1.302975 0 0 0
390 22 4 -6.975602 0.446848 -2.222196 0 0 0
391 23 4 -2.75242 2.672714 4.618817 0 0 0
392 24 4 -2.772361 1.913791 4.03397 0 0 0
393 25 4 4.461424 0.671579 -0.251023 0 0 0
394 26 4 6.12164 -6.80357 2.578265 0 0 0
395 27 4 9.07369 1.51975 2.843603 0 0 0
396 28 4 -4.107149 7.002084 -1.925507 0 0 0
397 29 4 -4.563894 6.939933 -3.094765 0 0 0
398 30 4 -8.393279 6.241506 -3.622338 0 0 0
399 31 4 -0.317855 -5.446572 -3.600586 0 0 0
400 32 4 3.547218 -6.676022 1.634956 0 0 0
401 33 4 -0.339227 -0.588678 -2.2345 0 0 0
402 34 4 -3.764366 6.818795 2.168584 0 0 0
403 35 4 2.667035 0.565184 4.48438 0 0 0
404 36 4 -3.26653 5.397006 3.814666 0 0 0
405 37 4 -1.317291 6.268901 -3.542562 0 0 0
406 38 4 -10.467827 -4.306743 -2.362272 0 0 0
407 39 4 -2.131832 -0.961617 -3.189863 0 0 0
408 40 4 1.335238 -5.285872 -2.507229 0 0 0
409 41 4 1.49859 0.351904 3.939344 0 0 0
410 42 4 -8.305258 6.76619 -2.406853 0 0 0
411 43 4 8.802499 6.797522 1.74065 0 0 0
412 44 4 -4.04061 3.837776 3.067557 0 0 0
413 45 4 -1.278905 5.002347 -2.11422 0 0 0
414 46 4 5.667293 1.857254 1.111162 0 0 0
415 47 4 1.412167 -0.00417 3.405382 0 0 0
416 48 4 -3.590562 -4.180923 3.114169 0 0 0
417 49 4 7.450953 -2.712218 -2.410179 0 0 0
418 50 4 -2.588148 1.091264 0.130022 0 0 0
419 51 4 -5.937679 -3.007668 -2.524467 0 0 0
420 52 4 7.852065 -0.63291 4.724348 0 0 0
421 53 4 4.673892 -2.069296 0.896595 0 0 0
422 54 4 0.759471 -4.222014 4.492099 0 0 0
423 55 4 7.630484 5.992783 -1.369087 0 0 0
424 56 4 -7.154051 4.014137 -1.027703 0 0 0
425 57 4 6.135073 -1.582115 4.319776 0 0 0
426 58 4 -0.809004 2.663088 -2.223781 0 0 0
427 59 4 5.536516 1.374796 -3.959953 0 0 0
428 60 4 7.677456 -3.533776 1.54416 0 0 0
429 61 4 -4.309155 0.679986 0.087245 0 0 0
430 62 4 3.766863 -5.799032 -0.638432 0 0 0
431 63 4 8.710446 2.059315 -4.41783 0 0 0
432 64 4 10.260353 6.738728 1.100097 0 0 0
433 65 4 -5.077435 -1.881944 4.144163 0 0 0
434 66 4 -10.159715 -7.326027 3.235974 0 0 0
435 67 4 3.442813 5.325182 -4.683471 0 0 0
436 68 4 -3.947773 4.215915 -0.581176 0 0 0
437 69 4 -10.752249 6.019457 -3.88077 0 0 0
438 70 4 -10.507016 -5.996663 -2.52808 0 0 0
439 71 4 -5.429375 4.89108 1.297053 0 0 0
440 72 4 0.760518 -5.890832 0.211024 0 0 0
441 73 4 -6.921214 5.925761 -2.573937 0 0 0
442 74 4 2.376609 -3.270079 -1.175526 0 0 0
443 75 4 4.311155 6.219804 -1.954193 0 0 0
444 76 4 -4.33836 1.410596 -2.662854 0 0 0
445 77 4 -4.858503 2.995465 -4.378095 0 0 0
446 78 4 -2.369743 5.825072 2.95839 0 0 0
447 79 4 3.072102 6.136108 3.596595 0 0 0
448 80 4 1.825218 7.305612 2.548087 0 0 0
449 81 4 -3.733349 0.943149 4.984123 0 0 0
450 82 4 5.202747 6.306883 3.589109 0 0 0
451 83 4 1.724584 -6.999724 -4.39476 0 0 0
452 84 4 -9.302463 5.420922 2.960842 0 0 0
453 85 4 0.619678 5.503196 3.435062 0 0 0
454 86 4 8.539274 0.496576 -2.729452 0 0 0
455 87 4 -4.344341 -1.09462 3.206809 0 0 0
456 88 4 4.123788 -2.760568 3.792427 0 0 0
457 89 4 7.920819 4.498837 -1.618622 0 0 0
458 90 4 9.077076 4.45474 -0.892489 0 0 0
459 91 4 3.065741 -1.793954 -4.736589 0 0 0
460 92 4 -7.916928 -2.600474 1.551491 0 0 0
461 93 4 4.807491 -1.696964 -1.219702 0 0 0
462 94 4 -0.836638 -5.729626 2.850116 0 0 0
463 95 4 7.804108 4.578406 2.09219 0 0 0
464 96 4 -8.753493 -2.087719 -1.81798 0 0 0
465 97 4 -8.576082 -3.565913 4.328394 0 0 0
466 98 4 6.446131 -3.756174 -1.427768 0 0 0
467 99 4 -2.217201 -2.340683 1.668209 0 0 0
468 100 4 2.95034 1.11289 2.593966 0 0 0
469 101 4 -8.181844 -5.488818 2.056679 0 0 0
470 102 4 0.582752 0.720031 -4.831787 0 0 0
471 103 4 -1.105516 2.517453 -4.592148 0 0 0
472 104 4 2.605373 -4.131849 -2.95807 0 0 0
473 105 4 8.742519 -5.152122 2.153626 0 0 0
474 106 4 -2.588583 0.645902 0.55285 0 0 0
475 107 4 -1.861575 3.054767 0.707331 0 0 0
476 108 4 2.006142 6.620373 3.751764 0 0 0
477 109 4 -9.690166 -0.531878 -3.496059 0 0 0
478 110 4 7.025577 -5.383406 1.073639 0 0 0
479 111 4 7.658859 -7.4226 2.268103 0 0 0
480 112 4 3.984818 5.150955 2.233526 0 0 0
481 113 4 -1.088625 -4.735389 -4.765889 0 0 0
482 114 4 10.389572 -3.270242 3.815614 0 0 0
483 115 4 3.85564 4.869805 1.102823 0 0 0
484 116 4 0.896012 3.850808 0.566511 0 0 0
485 117 4 7.056632 0.491812 0.86033 0 0 0
486 118 4 -9.058548 5.443825 -3.015521 0 0 0
487 119 4 -9.370443 -2.005097 1.884711 0 0 0
488 120 4 -8.107605 2.487757 -1.666606 0 0 0
489 121 4 7.820792 3.185872 -3.970106 0 0 0
490 122 4 6.157525 -2.953279 3.62746 0 0 0
491 123 4 10.045077 1.337726 -0.421837 0 0 0
492 124 4 -6.900866 -6.637404 -0.920649 0 0 0
493 125 4 2.907187 6.173957 4.287645 0 0 0
494 126 4 -6.488017 5.15302 -3.995089 0 0 0
495 127 4 -0.896658 -4.013964 3.966277 0 0 0
496 128 4 -8.316729 1.699044 2.10969 0 0 0
497 129 4 -2.566221 -1.709072 -1.889821 0 0 0
498 130 4 -3.032857 -3.1012 4.436066 0 0 0
499 131 4 7.84664 3.953936 -2.028465 0 0 0
500 132 4 -4.310453 3.968486 -0.115794 0 0 0
501 133 4 4.25466 6.961229 -4.242316 0 0 0
502 134 4 -4.701549 7.34876 1.360414 0 0 0
503 135 4 10.668026 -4.444064 -2.159497 0 0 0
504 136 4 -9.253871 -4.457047 -2.985421 0 0 0
505 137 4 1.385281 -1.830547 -0.833913 0 0 0
506 138 4 8.706662 6.305672 -3.351581 0 0 0
507 139 4 -4.010056 1.884441 -2.030516 0 0 0
508 140 4 -4.079568 2.09116 -4.063369 0 0 0
509 141 4 10.04683 -0.288443 -4.114764 0 0 0
510 142 4 2.638916 -1.738816 -0.289552 0 0 0
511 143 4 8.094761 -6.995396 -4.605939 0 0 0
512 144 4 7.094258 -1.107493 -3.562358 0 0 0
513 145 4 -2.943108 2.251221 -2.647729 0 0 0
514 146 4 6.13124 -6.161273 3.838224 0 0 0
515 147 4 5.906993 -5.236138 -0.586769 0 0 0
516 148 4 5.636074 7.146731 -4.927931 0 0 0
517 149 4 5.466856 -2.556493 4.403578 0 0 0
518 150 4 -6.776382 -6.674283 -2.001546 0 0 0
519 151 4 1.51886 4.816018 -3.173605 0 0 0
520 152 4 -9.594793 4.470876 4.078625 0 0 0
521 153 4 -2.964339 6.7684 -3.274432 0 0 0
522 154 4 6.79941 -6.929284 -1.670685 0 0 0
523 155 4 5.501309 -3.243839 2.522245 0 0 0
524 156 4 9.494609 7.01012 2.563763 0 0 0
525 157 4 -5.991826 -7.186311 -2.563784 0 0 0
526 158 4 -8.031966 0.453692 -1.042749 0 0 0
527 159 4 7.39903 5.75912 -2.490133 0 0 0
528 160 4 -10.885438 3.706297 -4.502107 0 0 0
529 161 4 -2.322743 -3.980252 4.195375 0 0 0
530 162 4 3.287896 2.90743 2.775469 0 0 0
531 163 4 -1.564942 1.730313 -1.587295 0 0 0
532 164 4 10.795103 -1.079782 -4.313807 0 0 0
533 165 4 7.763965 2.838822 -1.13264 0 0 0
534 166 4 0.78656 0.328045 -3.286164 0 0 0
535 167 4 -8.386965 -1.950984 4.551072 0 0 0
536 168 4 -10.179718 -4.302548 2.137583 0 0 0
537 169 4 9.120079 0.333115 1.549593 0 0 0
538 170 4 2.755002 -4.967327 -1.238575 0 0 0
539 171 4 -9.53174 -2.222409 2.026249 0 0 0
540 172 4 -10.25087 -1.664133 -2.537831 0 0 0
541 173 4 -10.710164 3.263297 3.172624 0 0 0
542 174 4 6.374548 -1.758366 -4.460515 0 0 0
543 175 4 -0.569586 -2.431403 -2.526188 0 0 0
544 176 4 -9.900833 7.42975 -4.520272 0 0 0
545 177 4 -3.846761 -6.407651 -2.291166 0 0 0
546 178 4 -10.928946 0.36098 -3.588586 0 0 0
547 179 4 6.131107 4.36978 -3.810643 0 0 0
548 180 4 -8.092682 1.370206 3.70673 0 0 0
549 181 4 -2.963956 6.926426 2.143111 0 0 0
550 182 4 -1.369697 2.722675 2.245439 0 0 0
551 183 4 -7.133633 4.527388 -2.249402 0 0 0
552 184 4 -9.401678 6.525374 1.640086 0 0 0
553 185 4 -2.39291 3.939454 -2.062254 0 0 0
554 186 4 -4.379517 -1.889076 4.949279 0 0 0
555 187 4 9.653394 -3.510672 -4.357943 0 0 0
556 188 4 0.20957 -6.763742 2.092585 0 0 0
557 189 4 1.698333 -5.957786 -4.102932 0 0 0
558 190 4 10.424994 -5.798866 -0.071152 0 0 0
559 191 4 -6.047519 2.910046 1.298729 0 0 0
560 192 4 2.528233 -2.688304 -1.132511 0 0 0
561 193 4 5.80391 0.299835 -2.223784 0 0 0
562 194 4 -5.049182 3.180156 4.474005 0 0 0
563 195 4 0.954143 -7.3346 1.015437 0 0 0
564 196 4 5.343037 -3.359144 2.686538 0 0 0
565 197 4 -10.174124 -4.680215 1.321551 0 0 0
566 198 4 -5.723247 2.365333 -1.152084 0 0 0
567 199 4 5.720571 -7.029636 0.190057 0 0 0
568 200 4 -6.078865 6.97948 0.013207 0 0 0
569 201 4 -8.72577 4.277232 -2.798134 0 0 0
570 202 4 1.652859 0.312297 -4.742586 0 0 0
571 203 4 -1.789319 5.467416 2.086994 0 0 0
572 204 4 5.260914 -4.700985 4.827015 0 0 0
573 205 4 5.996576 -0.734289 3.06219 0 0 0
574 206 4 7.447367 0.513716 -0.338101 0 0 0
575 207 4 9.188038 2.288947 -1.995551 0 0 0
576 208 4 -4.962336 0.585838 4.734905 0 0 0
577 209 4 5.522816 2.109789 0.762032 0 0 0
578 210 4 4.714408 5.968813 4.696933 0 0 0
579 211 4 0.212892 -4.661975 2.598817 0 0 0
580 212 4 -9.584141 -2.027669 4.904299 0 0 0
581 213 4 0.415396 3.321198 0.171201 0 0 0
582 214 4 -5.238217 0.217367 -0.585143 0 0 0
583 215 4 5.012423 -2.35062 -1.619047 0 0 0
584 216 4 5.747495 -2.03887 4.455178 0 0 0
585 217 4 -9.033917 -3.681094 -3.961299 0 0 0
586 218 4 -5.788092 1.09994 0.062586 0 0 0
587 219 4 5.419924 4.576846 -1.971866 0 0 0
588 220 4 -8.361307 -0.501282 4.424981 0 0 0
589 221 4 -5.487359 2.372341 0.661895 0 0 0
590 222 4 10.587913 -4.298804 2.571475 0 0 0
591 223 4 -8.824351 0.536662 4.205493 0 0 0
592 224 4 -8.813373 -3.542722 -0.15378 0 0 0
593 225 4 -10.989962 -7.428273 1.558152 0 0 0
594 226 4 -6.596589 -4.539226 4.211002 0 0 0
595 227 4 3.927624 7.178632 3.226831 0 0 0
596 228 4 -10.878286 -0.927723 -4.911793 0 0 0
597 229 4 -5.789038 7.476883 1.903089 0 0 0
598 230 4 -9.313071 6.742272 2.430344 0 0 0
599 231 4 7.837778 -2.766533 -1.377532 0 0 0
600 232 4 10.797719 -1.09826 -0.41479 0 0 0
601 233 4 3.241105 7.121253 2.996373 0 0 0
602 234 4 1.855971 -6.28931 -2.253828 0 0 0
603 235 4 3.061875 -3.911854 -2.433768 0 0 0
604 236 4 1.170478 4.954362 4.001733 0 0 0
605 237 4 -10.064167 -0.825012 1.55794 0 0 0
606 238 4 -1.419643 1.443648 -0.869375 0 0 0
607 239 4 6.527938 -2.023533 2.19246 0 0 0
608 240 4 0.134073 -4.153141 0.120124 0 0 0
609 241 4 -6.941675 -1.106516 -1.877454 0 0 0
610 242 4 -7.719552 5.073596 -2.187713 0 0 0
611 243 4 8.053917 -2.174174 -1.032558 0 0 0
612 244 4 9.292818 6.660438 4.061603 0 0 0
613 245 4 -7.953159 -1.582987 -0.807439 0 0 0
614 246 4 5.048957 -5.013031 -4.434539 0 0 0
615 247 4 -6.719033 4.051734 -0.447399 0 0 0
616 248 4 -8.084873 4.03073 2.935562 0 0 0
617 249 4 6.458915 -1.726169 -2.542827 0 0 0
618 250 4 7.201321 5.245626 -0.228354 0 0 0
619 251 4 -7.431923 5.747702 4.986412 0 0 0
620 252 4 -1.844101 -2.875257 3.098524 0 0 0
621 253 4 7.17901 5.08906 -3.241396 0 0 0
622 254 4 10.376775 -2.752351 2.378683 0 0 0
623 255 4 8.101755 4.685963 3.588944 0 0 0
624 256 4 -8.658129 6.374161 -3.183045 0 0 0
625 257 4 2.589883 5.523019 3.173589 0 0 0
626 258 4 1.687173 0.047144 -3.313903 0 0 0
627 259 4 -8.363186 -5.408391 -1.03596 0 0 0
628 260 4 3.271126 -3.415243 2.165952 0 0 0
629 261 4 3.570098 -1.098882 3.969715 0 0 0
630 262 4 -6.507009 0.021074 0.944628 0 0 0
631 263 4 4.148911 -5.533623 -3.922526 0 0 0
632 264 4 -0.431444 -5.168385 1.692444 0 0 0
633 265 4 10.926927 1.426822 -1.475877 0 0 0
634 266 4 5.183582 -3.960583 4.78659 0 0 0
635 267 4 4.609769 -2.593576 -0.407518 0 0 0
636 268 4 -5.613809 6.403468 2.855377 0 0 0
637 269 4 8.857105 4.476404 -0.394135 0 0 0
638 270 4 -1.231892 -5.515914 4.917631 0 0 0
639 271 4 -8.965485 -3.980095 -0.684486 0 0 0
640 272 4 -5.562823 -6.297123 2.864485 0 0 0
641 273 4 4.935808 5.562857 2.265871 0 0 0
642 274 4 6.170489 5.143394 -4.038525 0 0 0
643 275 4 -4.736937 0.523121 1.430093 0 0 0
644 276 4 -5.562101 -5.168341 1.471024 0 0 0
645 277 4 10.193113 -1.75763 -1.016706 0 0 0
646 278 4 9.122625 -0.325226 -0.572927 0 0 0
647 279 4 10.403248 1.497703 3.588665 0 0 0
648 280 4 10.475091 -3.607621 1.563004 0 0 0
649 281 4 -7.978826 -0.368184 -0.294757 0 0 0
650 282 4 -10.158962 -0.016828 4.721668 0 0 0
651 283 4 1.902768 0.40868 4.237871 0 0 0
652 284 4 8.864877 6.138351 1.775475 0 0 0
653 285 4 -6.428297 6.943694 4.57748 0 0 0
654 286 4 9.42774 -2.330381 -2.633298 0 0 0
655 287 4 -6.460809 2.2722 -0.577511 0 0 0
656 288 4 7.644227 6.061666 -4.206012 0 0 0
657 289 4 3.275261 -3.723818 0.548153 0 0 0
658 290 4 4.522929 6.78575 -0.201991 0 0 0
659 291 4 5.123011 1.167635 -4.566646 0 0 0
660 292 4 -10.685446 2.416762 4.203843 0 0 0
661 293 4 -4.374934 5.258051 4.119276 0 0 0
662 294 4 -2.318654 -4.8496 -1.378597 0 0 0
663 295 4 8.676052 5.066892 -0.406885 0 0 0
664 296 4 10.359693 6.511372 -4.857691 0 0 0
665 297 4 2.959076 -7.084066 4.365282 0 0 0
666 298 4 -7.669091 6.546708 -4.69941 0 0 0
667 299 4 -1.881727 -0.973403 0.638345 0 0 0
668 300 4 10.784477 -6.904776 1.697313 0 0 0
669 301 4 -2.287393 0.256228 -2.303314 0 0 0
670 302 4 3.982013 -5.711358 0.065912 0 0 0
671 303 4 -0.664565 7.301812 -1.624018 0 0 0
672 304 4 1.284947 4.275636 -3.807513 0 0 0
673 305 4 -10.44051 -5.640315 0.879561 0 0 0
674 306 4 -3.386602 -6.471685 -1.88889 0 0 0
675 307 4 -6.410308 -0.2905 4.270632 0 0 0
676 308 4 -3.85092 4.355937 -0.482932 0 0 0
677 309 4 4.2148 5.613833 -4.524599 0 0 0
678 310 4 1.75627 -3.332391 -4.307363 0 0 0
679 311 4 -2.853396 -2.541639 -1.58077 0 0 0
680 312 4 -1.803135 -3.127599 4.119949 0 0 0
681 313 4 -8.982186 4.03298 0.877623 0 0 0
682 314 4 -4.073149 3.196875 0.358789 0 0 0
683 315 4 4.714129 3.618332 -4.216864 0 0 0
684 316 4 -0.764861 4.97614 -4.704775 0 0 0
685 317 4 2.94008 5.848123 2.511851 0 0 0
686 318 4 6.80989 1.826463 1.38247 0 0 0
687 319 4 -0.565262 5.81033 -4.77026 0 0 0
688 320 4 8.359722 -2.724079 -1.456484 0 0 0
689 321 4 7.158773 4.028526 3.669445 0 0 0
690 322 4 10.448322 0.409807 -3.849353 0 0 0
691 323 4 2.091705 0.43969 -2.269682 0 0 0
692 324 4 -5.770268 -2.255433 -1.351556 0 0 0
693 325 4 -4.148503 5.829193 -3.059089 0 0 0
694 326 4 0.831734 5.62428 4.563529 0 0 0
695 327 4 6.171944 3.698063 -2.313179 0 0 0
696 328 4 1.670067 5.453868 0.554934 0 0 0
697 329 4 -9.735682 0.864295 4.699747 0 0 0
698 330 4 8.351162 -7.303338 -2.313567 0 0 0
699 331 4 -5.359387 5.307554 -3.070067 0 0 0
700 332 4 5.757068 6.296477 -1.407777 0 0 0
701 333 4 1.074044 3.927584 3.018932 0 0 0
702 334 4 -7.112868 -2.106771 2.119955 0 0 0
703 335 4 -7.955569 -3.033622 -4.937238 0 0 0
704 336 4 -5.479338 -2.486649 -0.289186 0 0 0
705 337 4 -5.397585 0.794279 4.411355 0 0 0
706 338 4 -1.97412 0.040054 -0.355856 0 0 0
707 339 4 10.194505 3.928796 -1.53959 0 0 0
708 340 4 -8.063936 -6.299178 0.486238 0 0 0
709 341 4 1.260184 -7.234546 3.332115 0 0 0
710 342 4 -8.669654 -4.313695 -4.111715 0 0 0
711 343 4 3.662465 5.821214 2.534051 0 0 0
712 344 4 3.04374 -1.20666 2.892341 0 0 0
713 345 4 -9.672551 6.596082 2.542904 0 0 0
714 346 4 -6.742768 -5.897458 -3.203895 0 0 0
715 347 4 8.623376 -0.849189 -3.532318 0 0 0
716 348 4 2.118925 -5.197368 1.323455 0 0 0
717 349 4 0.446412 -4.940874 -2.293257 0 0 0
718 350 4 6.631678 -4.315254 -0.572184 0 0 0
719 351 4 1.066831 0.828988 3.982047 0 0 0
720 352 4 3.729807 -5.066109 2.340349 0 0 0
721 353 4 1.727819 -2.768367 1.562765 0 0 0
722 354 4 7.477665 5.705621 -4.889718 0 0 0
723 355 4 7.945356 -2.086098 -1.264589 0 0 0
724 356 4 7.734411 4.652792 0.973428 0 0 0
725 357 4 7.222016 -6.439685 4.401158 0 0 0
726 358 4 -9.88446 5.62765 -0.463498 0 0 0
727 359 4 8.687487 0.219395 -3.539978 0 0 0
728 360 4 0.928089 6.07737 1.527131 0 0 0
729 361 4 -8.093683 0.957989 -3.996163 0 0 0
730 362 4 -8.50147 -2.363474 -3.187189 0 0 0
731 363 4 5.012216 -0.791734 -4.04721 0 0 0
732 364 4 -6.901227 5.790067 2.168277 0 0 0
733 365 4 0.394101 -5.600254 -1.541535 0 0 0
734 366 4 10.371995 0.893682 2.179104 0 0 0
735 367 4 -4.98473 -1.62472 -3.513631 0 0 0
736 368 4 -2.690728 -3.999397 2.208847 0 0 0
737 369 4 -8.427426 -0.603425 -2.678724 0 0 0
738 370 4 -3.112895 4.546681 0.511313 0 0 0
739 371 4 -5.59639 4.32351 -1.958828 0 0 0
740 372 4 -9.558821 1.246172 3.660091 0 0 0
741 373 4 4.373769 -2.534129 0.604868 0 0 0
742 374 4 9.678964 -4.719878 2.298678 0 0 0
743 375 4 6.945702 7.004084 -0.147941 0 0 0
744 376 4 -5.420365 2.928711 -0.485501 0 0 0
745 377 4 4.734843 2.291508 -3.943357 0 0 0
746 378 4 9.257518 5.768868 0.996486 0 0 0
747 379 4 -10.375475 1.634665 0.224655 0 0 0
748 380 4 0.981 4.678276 -3.301207 0 0 0
749 381 4 7.225996 3.285501 -4.217186 0 0 0
750 382 4 -9.707786 -6.108945 -3.121293 0 0 0
751 383 4 -5.053507 0.705422 -1.457529 0 0 0
752 384 4 0.916837 -1.424816 -1.825252 0 0 0
753 385 4 8.536463 -7.289616 -3.877945 0 0 0
754 386 4 3.386953 -1.426853 -0.671549 0 0 0
755 387 4 -1.392096 7.291723 -2.328985 0 0 0
756 388 4 7.732642 -2.910231 2.277365 0 0 0
757 389 4 -9.598585 -7.293338 -4.812953 0 0 0
758 390 4 6.297683 4.799526 3.718312 0 0 0
759 391 4 -0.821659 -4.445051 0.440473 0 0 0
760 392 4 -1.468645 4.492429 0.550706 0 0 0
761 393 4 8.250566 4.533487 -4.635615 0 0 0
762 394 4 6.895823 -0.895794 0.085248 0 0 0
763 395 4 -6.863274 0.802301 -2.773861 0 0 0
764 396 4 6.20399 3.473069 0.185555 0 0 0
765 397 4 -7.177284 3.802379 3.178458 0 0 0
766 398 4 -0.851112 -2.838588 -0.095302 0 0 0
767 399 4 9.361067 -6.957284 -2.367065 0 0 0
768 400 4 -8.438446 -5.359429 -3.848398 0 0 0
769 401 4 3.359895 -1.705019 -2.60537 0 0 0
770 402 4 2.711154 4.747977 -2.084421 0 0 0
771 403 4 -10.217058 -3.637016 -1.32621 0 0 0
772 404 4 5.726148 5.555718 -2.254287 0 0 0
773 405 4 1.626378 6.431689 3.033176 0 0 0
774 406 4 10.428243 0.756644 -4.807653 0 0 0
775 407 4 1.527326 3.889686 -1.266019 0 0 0
776 408 4 -2.645266 -1.750296 -3.007137 0 0 0
777 409 4 -9.216282 6.156548 -0.940686 0 0 0
778 410 4 10.37126 -6.203545 -2.20429 0 0 0
779 411 4 -7.26548 4.037817 -3.505214 0 0 0
780 412 4 3.968243 6.336176 1.63745 0 0 0
781 413 4 8.263564 -2.604744 1.0845 0 0 0
782 414 4 -1.453286 5.427851 -2.414364 0 0 0
783 415 4 -10.667783 -4.717805 2.705553 0 0 0
784 416 4 6.253595 -1.170994 -0.485546 0 0 0
785 417 4 8.911017 4.267913 2.167152 0 0 0
786 418 4 2.711999 5.623088 -3.080596 0 0 0
787 419 4 10.447606 4.099803 0.608247 0 0 0
788 420 4 1.344633 1.120862 4.339674 0 0 0
789 421 4 3.770262 7.061761 3.730039 0 0 0
790 422 4 -10.490335 5.305949 -3.035311 0 0 0
791 423 4 -5.598302 -1.613546 0.949221 0 0 0
792 424 4 -5.473794 -2.020847 3.143496 0 0 0
793 425 4 10.455707 -1.401337 2.337 0 0 0
794 426 4 -4.713749 -7.303242 -1.218556 0 0 0
795 427 4 9.130957 2.426989 -2.863747 0 0 0
796 428 4 9.194836 7.086779 -1.757916 0 0 0
797 429 4 -7.823117 -0.304603 -2.223248 0 0 0
798 430 4 -10.32572 4.200975 4.498578 0 0 0
799 431 4 6.078967 -2.075107 4.500577 0 0 0
800 432 4 3.451916 -6.88715 0.404366 0 0 0
801 433 4 -8.300938 3.265022 1.542503 0 0 0
802 434 4 6.903933 3.118305 -3.704399 0 0 0
803 435 4 -8.980039 5.677073 1.389583 0 0 0
804 436 4 2.734427 -0.564967 -3.056134 0 0 0
805 437 4 5.857132 0.399876 2.967878 0 0 0
806 438 4 -2.224467 4.703446 1.30881 0 0 0
807 439 4 -2.148541 6.191827 -4.698402 0 0 0
808 440 4 4.960984 5.90044 -2.037372 0 0 0
809 441 4 3.078944 -3.082266 2.312705 0 0 0
810 442 4 3.093661 -0.853721 0.807122 0 0 0
811 443 4 2.546381 1.808099 -2.029839 0 0 0
812 444 4 -5.90185 -2.310513 2.847083 0 0 0
813 445 4 10.589675 4.776327 1.470995 0 0 0
814 446 4 -1.283959 -3.713606 0.863296 0 0 0
815 447 4 2.701211 7.311709 1.557665 0 0 0
816 448 4 -6.349964 -2.220296 -1.226202 0 0 0
817 449 4 7.961804 1.124188 2.513279 0 0 0
818 450 4 -0.962797 -0.36225 2.394435 0 0 0
819 451 4 10.471514 -6.54379 2.162981 0 0 0
820 452 4 3.883903 2.834944 -0.054852 0 0 0
821 453 4 -1.924242 1.5141 -2.073788 0 0 0
822 454 4 1.266284 -5.65897 2.718685 0 0 0
823 455 4 4.285355 -3.546796 -3.252132 0 0 0
824 456 4 -3.960103 5.687128 -3.097865 0 0 0
825 457 4 6.437859 -4.942417 -4.421968 0 0 0
826 458 4 -10.838926 3.210054 -4.129145 0 0 0
827 459 4 0.922238 -0.938812 2.10508 0 0 0
828 460 4 4.428284 7.213648 2.462677 0 0 0
829 461 4 -10.157777 3.820427 1.933125 0 0 0
830 462 4 -5.586769 5.899458 -3.560898 0 0 0
831 463 4 -8.138237 3.629729 0.531311 0 0 0
832 464 4 -1.521782 -1.536945 0.219816 0 0 0
833 465 4 -5.751203 7.17462 -0.547501 0 0 0
834 466 4 -10.373936 2.182347 4.098096 0 0 0
835 467 4 -3.944528 -3.775295 1.674766 0 0 0
836 468 4 4.744394 7.259598 4.618725 0 0 0
837 469 4 2.496353 7.251552 0.215204 0 0 0
838 470 4 3.439768 3.647299 2.034842 0 0 0
839 471 4 -0.051798 6.25433 1.376303 0 0 0
840 472 4 -4.172153 6.397276 -0.617023 0 0 0
841 473 4 1.570186 0.034769 -4.842167 0 0 0
842 474 4 2.37028 5.720573 2.085307 0 0 0
843 475 4 -2.227596 -6.661576 -4.730758 0 0 0
844 476 4 0.734557 2.937367 -2.492964 0 0 0
845 477 4 1.379091 6.001154 2.986392 0 0 0
846 478 4 -7.422697 6.740503 -3.510667 0 0 0
847 479 4 -10.325147 -6.837137 3.541232 0 0 0
848 480 4 -6.483503 1.472125 -3.856023 0 0 0
849 481 4 1.426264 1.835347 -1.716769 0 0 0
850 482 4 -8.492108 4.872368 -0.060478 0 0 0
851 483 4 5.252503 2.145418 -2.735726 0 0 0
852 484 4 0.257388 3.829183 -3.574822 0 0 0
853 485 4 -1.096455 -0.312266 -4.049002 0 0 0
854 486 4 -5.96817 -4.346947 3.181791 0 0 0
855 487 4 -8.076968 2.873825 -4.394848 0 0 0
856 488 4 0.671461 3.402778 2.452057 0 0 0
857 489 4 -10.821281 6.615744 -1.944797 0 0 0
858 490 4 6.379506 0.259648 1.587921 0 0 0
859 491 4 -6.018754 -2.116084 0.530175 0 0 0
860 492 4 6.965335 -5.677344 4.567747 0 0 0
861 493 4 4.485875 3.432437 -0.718244 0 0 0
862 494 4 10.461768 -0.660717 4.407815 0 0 0
863 495 4 -9.830553 1.308042 -0.469437 0 0 0
864 496 4 -3.836352 -3.3385 2.300216 0 0 0
865 497 4 5.62833 5.213514 3.919729 0 0 0
866 498 4 5.347131 4.728861 2.656209 0 0 0
867 499 4 -7.857899 -0.166694 1.984616 0 0 0
868 500 4 4.771403 -2.895219 4.894958 0 0 0
869 501 4 3.985005 -6.802487 -4.867165 0 0 0
870 502 4 -0.945188 -4.377805 -1.781016 0 0 0
871 503 4 4.000549 3.439195 3.823037 0 0 0
872 504 4 -6.182691 -5.943796 -4.784536 0 0 0
873 505 4 5.853832 -1.35682 2.488584 0 0 0
874 506 4 8.274093 -4.88126 2.327353 0 0 0
875 507 4 5.528294 3.997164 -2.429355 0 0 0
876 508 4 9.758297 3.969139 -2.536463 0 0 0
877 509 4 -6.619377 0.677226 2.071057 0 0 0
878 510 4 -4.272413 0.23032 -2.172419 0 0 0
879 511 4 -5.243461 -7.075304 4.950788 0 0 0
880 512 4 1.10687 -4.176782 -3.739158 0 0 0
881 513 4 10.106974 -3.586256 3.816229 0 0 0
882 514 4 7.99773 -0.360502 -3.908021 0 0 0
883 515 4 3.874806 -6.075193 -1.189359 0 0 0
884 516 4 -2.400114 -3.296585 4.740571 0 0 0
885 517 4 10.517642 2.903128 1.379982 0 0 0
886 518 4 2.177578 -1.617179 3.939723 0 0 0
887 519 4 10.963071 1.408279 -2.207974 0 0 0
888 520 4 -8.227289 5.344219 0.438351 0 0 0
889 521 4 -7.868855 3.041551 3.312124 0 0 0
890 522 4 -10.436841 -4.025272 4.980211 0 0 0
891 523 4 7.839272 -7.169897 -4.242567 0 0 0
892 524 4 2.542485 -2.703429 -0.424673 0 0 0
893 525 4 -10.57453 -4.130204 -3.218887 0 0 0
894 526 4 -0.357523 -2.162964 -2.616523 0 0 0
895 527 4 3.490775 5.945481 -4.505448 0 0 0
896 528 4 -5.9454 3.454081 4.65468 0 0 0
897 529 4 7.424455 4.675098 -1.716276 0 0 0
898 530 4 -0.028339 -0.219386 2.901655 0 0 0
899 531 4 -0.526109 7.025398 4.573349 0 0 0
900 532 4 9.076924 1.051984 2.252106 0 0 0
901 533 4 6.921874 6.570223 -4.122282 0 0 0
902 534 4 -6.303082 1.403272 -2.294603 0 0 0
903 535 4 10.380135 -5.506903 2.196816 0 0 0
904 536 4 -5.065002 -2.609738 -3.899507 0 0 0
905 537 4 -2.72874 3.195817 -4.751996 0 0 0
906 538 4 -10.813084 -4.750737 -1.726558 0 0 0
907 539 4 8.572711 7.428483 4.870302 0 0 0
908 540 4 -9.400745 -0.082507 -0.52576 0 0 0
909 541 4 1.504088 5.8558 -2.06052 0 0 0
910 542 4 -5.277795 -4.872861 0.646972 0 0 0
911 543 4 7.925287 -4.43795 2.747108 0 0 0
912 544 4 -8.591671 -7.358129 -0.324471 0 0 0
913 545 4 5.03989 0.96442 0.220916 0 0 0
914 546 4 7.98965 1.401672 -0.664253 0 0 0
915 547 4 -10.695123 2.086416 4.038034 0 0 0
916 548 4 2.442661 -3.516046 1.491244 0 0 0
917 549 4 -7.832669 -6.346653 3.223639 0 0 0
918 550 4 2.679936 -3.04976 -1.181299 0 0 0
919 551 4 -1.296153 2.523874 0.166204 0 0 0
920 552 4 8.806352 -0.627968 1.548687 0 0 0
921 553 8 -7.256775 2.06011 3.704642 0 0 0
922 554 8 -6.34037 -5.181712 3.435011 0 0 0
923 555 8 -8.654819 1.439988 -1.057715 0 0 0
924 556 8 -8.79395 3.704421 2.907694 0 0 0
925 557 8 -0.127775 3.912613 0.042061 0 0 0
926 558 8 -2.35046 4.35849 -1.662654 0 0 0
927 559 8 -10.460595 -5.965965 4.665044 0 0 0
928 560 8 -9.637427 3.971056 2.644373 0 0 0
929 561 8 -0.58776 -5.104563 -1.207847 0 0 0
930 562 8 -3.352734 -1.871284 1.121612 0 0 0
931 563 8 -3.995338 3.390891 4.485264 0 0 0
932 564 8 -0.324826 -1.403406 3.391222 0 0 0
933 565 8 -7.915028 -2.556943 -3.799016 0 0 0
934 566 8 -2.255798 2.000271 3.17791 0 0 0
935 567 8 -5.722983 -5.829298 1.678615 0 0 0
936 568 8 -8.340122 -1.300195 -3.641502 0 0 0
937 569 8 -4.675667 -2.164129 4.444675 0 0 0
938 570 8 -9.053111 -6.537153 -0.5292 0 0 0
939 571 8 -1.879413 -6.597754 2.880711 0 0 0
940 572 8 -5.898783 3.601617 2.901976 0 0 0
941 573 8 -6.586756 6.155095 2.801757 0 0 0
942 574 8 -3.769947 6.317203 -3.614172 0 0 0
943 575 8 -2.057002 -7.251866 1.302364 0 0 0
944 576 8 -4.518997 -3.811855 -4.668731 0 0 0
945 577 8 -9.424753 -1.509836 -2.191404 0 0 0
946 578 8 -0.285407 3.66895 4.72454 0 0 0
947 579 8 -5.683946 0.958157 0.174511 0 0 0
948 580 8 -4.705723 -4.687105 0.703827 0 0 0
949 581 8 -4.281473 -1.471011 1.666258 0 0 0
950 582 8 -5.404423 -4.367859 -2.370453 0 0 0
951 583 8 -10.047156 -4.809043 -3.80883 0 0 0
952 584 8 -6.604941 7.222571 -0.981407 0 0 0
953 585 8 -3.756716 2.11682 2.841219 0 0 0
954 586 8 -3.532931 0.303983 4.209118 0 0 0
955 587 8 -4.734184 -5.565236 1.587771 0 0 0
956 588 8 -7.691507 -3.279877 1.254149 0 0 0
957 589 8 -0.42101 -2.890092 -2.023633 0 0 0
958 590 8 -6.70626 1.346419 4.522192 0 0 0
959 591 8 -5.714952 -0.39699 -2.502817 0 0 0
960 592 8 -9.377375 -1.571338 1.81047 0 0 0
961 593 8 -1.67609 1.058676 -4.126028 0 0 0
962 594 8 -6.948171 -5.025376 -0.877379 0 0 0
963 595 8 -7.015885 4.40535 -0.826644 0 0 0
964 596 8 -4.453771 -5.546413 -2.321993 0 0 0
965 597 8 -0.461771 0.223132 -2.297816 0 0 0
966 598 8 -7.007547 -3.956182 3.216423 0 0 0
967 599 8 -7.413751 5.669215 2.767963 0 0 0
968 600 8 -1.337522 3.58726 -2.808706 0 0 0
969 601 8 -7.229684 3.652727 -0.827408 0 0 0
970 602 8 -3.111168 7.126473 -3.116462 0 0 0
971 603 8 -5.258561 -2.414224 3.010454 0 0 0
972 604 8 -3.406895 -2.716765 1.913483 0 0 0
973 605 8 -4.311772 -6.365343 4.310587 0 0 0
974 606 8 -4.695636 3.454806 4.295398 0 0 0
975 607 8 -3.79703 -3.332613 1.113274 0 0 0
976 608 8 -3.519512 1.760654 1.19767 0 0 0
977 609 8 -7.439816 6.407503 -2.204784 0 0 0
978 610 8 -9.492939 -4.082754 -3.658897 0 0 0
979 611 8 -4.9063 6.221958 -0.65927 0 0 0
980 612 8 -2.211785 -6.897536 -0.537433 0 0 0
981 613 8 -9.288086 4.999616 1.59715 0 0 0
982 614 8 -5.995352 -6.436295 2.071521 0 0 0
983 615 8 -2.259804 -3.761757 -2.057356 0 0 0
984 616 8 -8.783769 2.806617 3.751935 0 0 0
985 617 8 -10.885175 2.228243 2.560236 0 0 0
986 618 8 -6.115179 -1.297656 -3.142443 0 0 0
987 619 8 -7.304514 -4.569032 1.31405 0 0 0
988 620 8 -6.554241 -5.071138 2.554221 0 0 0
989 621 8 -3.649964 0.323832 3.639072 0 0 0
990 622 8 -8.971592 0.620934 1.737544 0 0 0
991 623 8 -3.795297 1.273314 0.232631 0 0 0
992 624 8 -0.807693 2.91315 0.539874 0 0 0
993 625 8 -3.200197 -4.767956 3.930658 0 0 0
994 626 8 -10.199524 -6.815721 1.022394 0 0 0
995 627 8 -8.279029 1.629906 -3.914026 0 0 0
996 628 8 -2.347715 -6.350871 -4.374362 0 0 0
997 629 8 -0.728941 4.473934 -0.501724 0 0 0
998 630 8 -8.378481 2.057022 4.310124 0 0 0
999 631 8 -7.505208 -4.761686 -4.850548 0 0 0
1000 632 8 -2.316666 -5.98917 1.220411 0 0 0
1001 633 8 -2.871607 -3.276403 4.756382 0 0 0
1002 634 8 -5.178786 1.178585 -2.169811 0 0 0
1003 635 8 -10.94559 5.631432 3.329373 0 0 0
1004 636 8 -5.133804 -6.463605 -2.652148 0 0 0
1005 637 8 -10.367329 5.157917 -3.13387 0 0 0
1006 638 8 -0.805357 3.177325 -0.511803 0 0 0
1007 639 8 -7.107591 7.002439 4.776846 0 0 0
1008 640 8 -7.722205 -4.979303 3.312396 0 0 0
1009 641 8 -3.231903 0.372679 4.175927 0 0 0
1010 642 8 -5.568021 -2.775515 1.623445 0 0 0
1011 643 8 -7.016983 4.012071 -3.110826 0 0 0
1012 644 8 -9.522079 -0.866582 4.123657 0 0 0
1013 645 8 -6.697483 -7.242473 1.256141 0 0 0
1014 646 8 -3.461296 1.464139 3.182284 0 0 0
1015 647 8 -1.132852 -7.025734 0.859471 0 0 0
1016 648 8 -7.163182 0.500761 -3.903711 0 0 0
1017 649 8 -1.117556 -3.600466 1.243079 0 0 0
1018 650 8 -6.10237 -7.412677 2.031825 0 0 0
1019 651 8 -4.258813 -3.642467 -1.348434 0 0 0
1020 652 8 -6.227049 -0.007729 -2.397999 0 0 0
1021 653 8 -5.752293 -3.744989 3.831331 0 0 0
1022 654 8 -7.916898 -5.678505 -1.063322 0 0 0
1023 655 8 -2.744418 0.183214 -3.02504 0 0 0
1024 656 8 -8.341452 4.875524 3.395172 0 0 0
1025 657 8 -1.807484 -5.200856 -2.804307 0 0 0
1026 658 8 -3.020906 -5.964064 -1.336307 0 0 0
1027 659 8 -4.115477 4.651868 2.562433 0 0 0
1028 660 8 -3.104326 3.745029 0.529257 0 0 0
1029 661 8 -9.131327 2.721382 3.052404 0 0 0
1030 662 8 -4.551708 -5.951691 -3.700782 0 0 0
1031 663 8 -2.762449 -7.025127 -2.028739 0 0 0
1032 664 8 -7.156633 -7.174099 -1.483587 0 0 0
1033 665 8 -8.975285 3.332253 -2.56929 0 0 0
1034 666 8 -8.346921 -5.41984 -1.992987 0 0 0
1035 667 8 -5.925681 6.570807 4.850038 0 0 0
1036 668 8 -8.213147 -5.688071 -4.353991 0 0 0
1037 669 8 -2.434181 -6.961035 -3.849845 0 0 0
1038 670 8 -8.479852 -0.99888 3.803204 0 0 0
1039 671 8 -6.350634 -1.493561 -3.449569 0 0 0
1040 672 8 -3.822784 -2.09532 -1.861364 0 0 0
1041 673 8 -2.211388 -0.128648 4.185458 0 0 0
1042 674 8 -4.738534 2.016371 0.993385 0 0 0
1043 675 8 -4.52431 -7.050346 -0.744145 0 0 0
1044 676 8 -5.909384 -1.902271 -4.496647 0 0 0
1045 677 8 -10.291038 -1.929598 -4.310278 0 0 0
1046 678 8 -7.006486 6.916572 -0.477119 0 0 0
1047 679 8 -8.047379 -4.389412 -0.43177 0 0 0
1048 680 8 -1.198848 -0.112703 4.181547 0 0 0
1049 681 8 -6.239093 -2.271729 4.43625 0 0 0
1050 682 8 -8.979071 2.057833 -2.81135 0 0 0
1051 683 8 -6.805754 -5.6622 -1.224321 0 0 0
1052 684 8 -9.765829 3.633791 -1.807141 0 0 0
1053 685 8 -8.714237 -6.485873 -2.711102 0 0 0
1054 686 8 -5.057785 7.197702 0.884435 0 0 0
1055 687 8 -2.321547 -5.345169 3.572169 0 0 0
1056 688 8 -5.804915 2.277669 -4.008146 0 0 0
1057 689 8 -3.44059 5.724732 4.476294 0 0 0
1058 690 8 -10.587082 -6.670705 2.419848 0 0 0
1059 691 8 -6.679437 -3.250704 3.328204 0 0 0
1060 692 8 -2.179675 -7.141608 0.730174 0 0 0
1061 693 8 -5.800608 -4.266944 1.961307 0 0 0
1062 694 8 -0.024984 -5.734646 1.288528 0 0 0
1063 695 8 -2.467967 -1.259932 2.457906 0 0 0
1064 696 8 -9.25835 2.411775 -3.028547 0 0 0
1065 697 8 -3.405609 -7.427837 2.526588 0 0 0
1066 698 8 -5.159534 5.066551 -4.771155 0 0 0
1067 699 8 -5.542803 4.600845 2.465818 0 0 0
1068 700 8 -10.990222 0.224892 -0.877039 0 0 0
1069 701 8 -7.608057 2.552683 2.973644 0 0 0
1070 702 8 -4.426914 6.579798 -1.432078 0 0 0
1071 703 8 -4.812913 6.704291 -3.77499 0 0 0
1072 704 8 -2.408304 -3.864875 0.795494 0 0 0
1073 705 8 -10.935336 2.60148 -4.778031 0 0 0
1074 706 8 -5.335317 -5.874397 0.065641 0 0 0
1075 707 8 -10.605829 -1.823059 3.048148 0 0 0
1076 708 8 -6.423534 5.604053 3.224123 0 0 0
1077 709 8 -3.717045 5.726238 -2.750537 0 0 0
1078 710 8 -2.198958 7.118853 1.076178 0 0 0
1079 711 8 -5.608312 -6.423006 3.413425 0 0 0
1080 712 8 -1.679226 0.622301 2.720864 0 0 0
1081 713 8 -2.777949 5.077051 -4.350539 0 0 0
1082 714 8 -5.18069 -0.343628 -2.027687 0 0 0
1083 715 8 -6.701437 3.021843 1.189376 0 0 0
1084 716 8 -2.717827 -3.677642 -4.141033 0 0 0
1085 717 8 -6.673539 -5.657368 0.165735 0 0 0
1086 718 8 -2.19763 5.762052 2.008324 0 0 0
1087 719 8 -1.978838 -0.738786 -0.442104 0 0 0
1088 720 8 -3.371707 2.762682 -1.748286 0 0 0
1089 721 8 -8.42307 0.321505 -1.756567 0 0 0
1090 722 8 -2.417442 1.183119 -4.407402 0 0 0
1091 723 8 -2.064995 1.323965 4.049023 0 0 0
1092 724 8 -2.936576 7.444827 2.603806 0 0 0
1093 725 8 -0.618662 -6.66397 1.965363 0 0 0
1094 726 8 -2.902621 4.744852 -0.126978 0 0 0
1095 727 8 -3.246613 -0.714485 4.748347 0 0 0
1096 728 8 -4.299251 -5.04551 3.825618 0 0 0
1097 729 8 -2.78476 0.358222 -0.585182 0 0 0
1098 730 8 -3.721941 -5.119083 0.11392 0 0 0
1099 731 8 -8.109829 -4.851741 3.525079 0 0 0
1100 732 8 -9.319659 -5.480562 -3.103565 0 0 0
1101 733 8 -7.95276 -3.090745 -0.478863 0 0 0
1102 734 8 -7.529902 -2.386161 -1.403697 0 0 0
1103 735 8 -9.00944 6.463105 3.405939 0 0 0
1104 736 8 -1.299212 -5.602843 4.369526 0 0 0
1105 737 8 -2.371166 -1.894716 -0.308001 0 0 0
1106 738 8 -7.656218 -3.47545 1.217942 0 0 0
1107 739 8 -10.95228 4.265203 -1.171898 0 0 0
1108 740 8 -10.411371 1.520701 1.461625 0 0 0
1109 741 8 -3.534062 -5.648469 2.640237 0 0 0
1110 742 8 -7.117078 -2.677957 1.122273 0 0 0
1111 743 8 -10.451723 -4.784005 3.023569 0 0 0
1112 744 8 -3.763479 2.051145 -3.174032 0 0 0
1113 745 8 -9.178236 1.094347 2.231761 0 0 0
1114 746 8 -7.786888 7.269001 1.001234 0 0 0
1115 747 8 -10.281174 6.988574 -4.329279 0 0 0
1116 748 8 -6.927149 5.018206 -2.123797 0 0 0
1117 749 8 -0.30253 -2.523033 3.958261 0 0 0
1118 750 8 -0.463318 1.887557 3.52708 0 0 0
1119 751 8 -0.580851 -0.068554 -0.648322 0 0 0
1120 752 8 -10.216004 -1.078156 4.788585 0 0 0
1121 753 8 -9.334278 6.790216 -3.297581 0 0 0
1122 754 8 -8.013383 -5.888492 1.29162 0 0 0
1123 755 8 -1.315119 0.177865 0.405721 0 0 0
1124 756 8 -4.745785 7.474912 -0.234406 0 0 0
1125 757 8 -1.836655 1.37522 -4.04163 0 0 0
1126 758 8 -6.330385 6.546681 -4.989599 0 0 0
1127 759 8 -7.994318 5.003101 1.259321 0 0 0
1128 760 8 -6.761874 5.353832 -1.50869 0 0 0
1129 761 8 -2.916362 1.099333 -1.490625 0 0 0
1130 762 8 -2.088333 -0.840581 4.927555 0 0 0
1131 763 8 -2.197966 1.63395 2.637238 0 0 0
1132 764 8 -10.636894 3.744561 1.018252 0 0 0
1133 765 8 -1.827451 0.56429 3.189564 0 0 0
1134 766 8 -9.054404 -1.718644 1.471242 0 0 0
1135 767 8 -2.146208 6.987388 -4.519476 0 0 0
1136 768 8 -3.858124 -5.923471 -1.765809 0 0 0
1137 769 8 -8.431768 1.919136 -0.574867 0 0 0
1138 770 8 -4.464955 1.177776 1.131538 0 0 0
1139 771 8 -9.315655 1.107046 -4.724763 0 0 0
1140 772 8 -8.450605 5.538097 -1.719287 0 0 0
1141 773 8 -6.559167 6.510665 2.695488 0 0 0
1142 774 8 -0.163802 -6.861614 2.707398 0 0 0
1143 775 8 -9.279006 -0.726495 -3.538688 0 0 0
1144 776 8 -7.420354 7.284817 -1.630547 0 0 0
1145 777 8 -0.676063 -5.039234 2.26247 0 0 0
1146 778 8 -4.659643 6.032746 -3.868711 0 0 0
1147 779 8 -1.335074 3.091352 0.006874 0 0 0
1148 780 8 -8.28781 -6.025056 4.650909 0 0 0
1149 781 8 -9.126931 2.481066 2.39612 0 0 0
1150 782 8 -8.86868 0.29249 -0.553661 0 0 0
1151 783 8 -0.726554 -4.886407 0.837712 0 0 0
1152 784 8 -3.38324 -3.854164 4.860354 0 0 0
1153 785 8 -10.263714 0.974952 -1.526208 0 0 0
1154 786 8 -10.33386 -2.465385 2.131547 0 0 0
1155 787 8 -4.638682 3.838775 -3.492772 0 0 0
1156 788 8 -8.885959 -1.29068 4.320799 0 0 0
1157 789 8 -10.159116 2.311604 -1.198992 0 0 0
1158 790 8 -2.410923 -0.249522 0.253996 0 0 0
1159 791 8 -5.924209 -5.469507 -1.285973 0 0 0
1160 792 8 -9.463649 7.004517 -4.089457 0 0 0
1161 793 8 -4.251964 6.942324 -1.449277 0 0 0
1162 794 8 -1.479935 2.919874 -4.53542 0 0 0
1163 795 8 -3.587457 6.278444 1.655227 0 0 0
1164 796 8 -6.965523 0.36205 0.062899 0 0 0
1165 797 8 -7.375992 7.228066 0.989052 0 0 0
1166 798 8 -1.058476 5.884199 -3.919125 0 0 0
1167 799 8 -8.818762 7.230461 -3.8251 0 0 0
1168 800 8 -1.13837 5.90003 -1.972318 0 0 0
1169 801 8 -9.118582 2.640267 0.801843 0 0 0
1170 802 8 -3.897906 -2.093106 -1.990076 0 0 0
1171 803 8 -4.704288 -0.149607 -2.297989 0 0 0
1172 804 8 -7.926291 -6.127774 -0.445295 0 0 0
1173 805 8 -1.799696 3.150221 -2.336101 0 0 0
1174 806 8 -5.862732 -4.473115 -2.018807 0 0 0
1175 807 8 -9.297368 2.185873 -1.280075 0 0 0
1176 808 8 -4.88815 5.216544 -1.251255 0 0 0
1177 809 8 -10.602706 7.269993 4.845366 0 0 0
1178 810 8 -2.20525 6.365009 -1.938759 0 0 0
1179 811 8 -5.827459 -4.898104 -0.420694 0 0 0
1180 812 8 -9.884602 7.391321 3.838436 0 0 0
1181 813 8 -10.855605 0.942111 4.900072 0 0 0
1182 814 8 -8.682314 4.871397 2.35288 0 0 0
1183 815 8 -0.115843 4.868731 -2.10386 0 0 0
1184 816 8 -7.042806 4.386743 -1.856768 0 0 0
1185 817 8 -7.013039 -1.226853 -0.141255 0 0 0
1186 818 8 -2.503988 -2.522611 -4.651598 0 0 0
1187 819 8 -6.520068 0.448268 1.748524 0 0 0
1188 820 8 -4.867382 5.562665 2.421767 0 0 0
1189 821 8 -10.290386 -4.850472 -2.511899 0 0 0
1190 822 8 -10.521226 4.073649 -3.393122 0 0 0
1191 823 8 -0.381605 -6.996666 -3.46615 0 0 0
1192 824 8 -6.855362 1.653715 -3.332374 0 0 0
1193 825 8 -10.379562 -0.121535 4.809538 0 0 0
1194 826 8 -9.073977 4.109333 3.417232 0 0 0
1195 827 8 -1.886682 1.012144 -4.364627 0 0 0
1196 828 8 -1.44806 -5.433642 -2.360761 0 0 0
1197 829 8 -9.631859 -5.205258 -3.777297 0 0 0
1198 830 8 -7.05704 4.19244 -2.257959 0 0 0
1199 831 8 -4.239622 -4.63247 3.501871 0 0 0
1200 832 8 -3.592579 5.484225 -1.531172 0 0 0
1201 833 8 -0.551015 -4.148838 1.400422 0 0 0
1202 834 8 -2.322368 -7.080706 -0.96599 0 0 0
1203 835 8 -2.14854 -5.619454 -1.432101 0 0 0
1204 836 8 -4.377629 -6.211398 3.557902 0 0 0
1205 837 8 -0.456257 -3.075031 -3.553458 0 0 0
1206 838 8 -9.182489 -0.120521 -2.593183 0 0 0
1207 839 8 -10.637438 2.759675 3.956611 0 0 0
1208 840 8 -0.026853 -5.709035 -3.927214 0 0 0
1209 841 8 -5.865854 -2.276892 3.298888 0 0 0
1210 842 8 -8.32622 6.429029 0.061655 0 0 0
1211 843 8 -5.537014 -5.725333 -3.034049 0 0 0
1212 844 8 -6.482454 -3.931225 1.046473 0 0 0
1213 845 8 -1.9121 -1.612086 0.633229 0 0 0
1214 846 8 -5.045316 -2.37346 -2.714531 0 0 0
1215 847 8 -3.363129 2.238981 0.463759 0 0 0
1216 848 8 -9.884088 1.414282 2.716466 0 0 0
1217 849 8 -1.506573 -4.954921 4.743536 0 0 0
1218 850 8 -10.542514 -2.485703 -1.902302 0 0 0
1219 851 8 -8.847835 -1.300164 4.273998 0 0 0
1220 852 8 -6.054427 4.221215 -0.032017 0 0 0
1221 853 8 -10.768523 -0.591169 -4.07241 0 0 0
1222 854 8 -4.497282 2.497214 -4.238804 0 0 0
1223 855 8 -9.696049 -4.857329 -3.878455 0 0 0
1224 856 8 -10.754851 4.965732 4.472309 0 0 0
1225 857 8 -7.831255 -7.125051 -4.080235 0 0 0
1226 858 8 -10.413184 -4.813169 4.887608 0 0 0
1227 859 8 -3.184477 -6.078471 -1.758708 0 0 0
1228 860 8 -3.715183 -4.845162 -4.912296 0 0 0
1229 861 8 -6.853481 -0.658715 3.697232 0 0 0
1230 862 8 -0.605725 -7.212938 3.06916 0 0 0
1231 863 8 -6.571754 5.925406 -1.43626 0 0 0
1232 864 8 -0.260238 7.445984 -2.193792 0 0 0
1233 865 8 -9.664076 -3.612527 -0.410859 0 0 0
1234 866 8 -2.284055 1.215946 4.321812 0 0 0
1235 867 8 -1.936289 -2.52591 1.434415 0 0 0
1236 868 8 -9.519328 -6.079274 -3.075458 0 0 0
1237 869 8 -10.714505 -2.725958 3.062317 0 0 0
1238 870 8 -5.259273 -3.042507 -2.841439 0 0 0
1239 871 8 -1.399497 -6.959482 -4.796185 0 0 0
1240 872 8 -10.138862 6.359694 1.118048 0 0 0
1241 873 8 -4.440794 -5.821814 -3.258965 0 0 0
1242 874 8 -6.06526 7.194051 1.458167 0 0 0
1243 875 8 -1.963968 -0.580383 -1.760656 0 0 0
1244 876 8 -6.429176 -4.337823 -2.887952 0 0 0
1245 877 8 -5.70292 6.637293 2.059141 0 0 0
1246 878 8 -4.489563 0.585272 -0.239143 0 0 0
1247 879 8 -0.096634 -4.615218 -3.608522 0 0 0
1248 880 8 -10.362685 3.392659 1.311155 0 0 0
1249 881 8 -9.363894 -3.667648 -4.980304 0 0 0
1250 882 8 -5.388567 -7.25623 4.117355 0 0 0
1251 883 8 -3.134605 -7.225075 4.933683 0 0 0
1252 884 8 -6.320268 -7.454687 -2.012762 0 0 0
1253 885 8 -7.997032 6.162667 2.39322 0 0 0
1254 886 8 -5.006487 3.952462 -1.607618 0 0 0
1255 887 8 -0.851244 2.287114 4.057537 0 0 0
1256 888 8 -0.824108 -1.146823 -2.164046 0 0 0
1257 889 8 -7.16875 3.70087 -4.134633 0 0 0
1258 890 8 -5.996281 -4.653795 -2.520089 0 0 0
1259 891 8 -7.178551 7.286747 -2.468907 0 0 0
1260 892 8 -8.591523 -2.689578 0.000954 0 0 0
1261 893 8 -6.347767 1.912955 -1.367014 0 0 0
1262 894 8 -10.76711 0.380318 -2.597091 0 0 0
1263 895 8 -1.870022 7.238378 4.909106 0 0 0
1264 896 8 -3.5898 0.074391 -3.856639 0 0 0
1265 897 8 -0.544876 -7.224094 1.913842 0 0 0
1266 898 8 -3.577891 5.492776 1.48959 0 0 0
1267 899 8 -3.956365 1.478444 2.153069 0 0 0
1268 900 8 -4.136411 0.877897 -1.803338 0 0 0
1269 901 8 -6.426125 7.342334 -1.288162 0 0 0
1270 902 8 -4.313484 2.103358 -1.257499 0 0 0
1271 903 8 -9.21997 2.382567 4.010908 0 0 0
1272 904 8 -0.382407 -2.837892 -0.50032 0 0 0
1273 905 8 -8.732446 -2.673954 1.721159 0 0 0
1274 906 8 -3.712218 -7.075639 1.367138 0 0 0
1275 907 8 -3.635011 -6.208921 0.498294 0 0 0
1276 908 8 -5.829418 -6.194098 3.146035 0 0 0
1277 909 8 -3.869467 7.44338 3.615917 0 0 0
1278 910 8 -4.529515 2.909513 -0.85511 0 0 0
1279 911 8 -1.23979 2.858946 0.32181 0 0 0
1280 912 8 -8.998518 6.436272 -1.199479 0 0 0
1281 913 8 -0.260271 5.556065 4.074526 0 0 0
1282 914 8 -0.274933 -6.570386 -3.365428 0 0 0
1283 915 8 -0.853029 -3.253851 3.39015 0 0 0
1284 916 8 -8.881674 -2.270748 -2.569553 0 0 0
1285 917 8 -1.42361 2.614416 1.107459 0 0 0
1286 918 8 -0.630266 -0.189831 0.530569 0 0 0
1287 919 8 -0.932428 5.834078 -3.358469 0 0 0
1288 920 8 -10.80297 4.484189 -0.144821 0 0 0
1289 921 8 -8.912944 -1.153965 -4.01107 0 0 0
1290 922 8 -4.991273 3.596516 -3.209582 0 0 0

Velocities

1 0 0 0
2 0 0 0
3 0 0 0
4 0 0 0
5 0 0 0
6 0 0 0
7 0 0 0
8 0 0 0
9 0 0 0
10 0 0 0
11 0 0 0
12 0 0 0
13 0 0 0
14 0 0 0
15 0 0 0
16 0 0 0
17 0 0 0
18 0 0 0
19 0 0 0
20 0 0 0
21 0 0 0
22 0 0 0
23 0 0 0
24 0 0 0
25 0 0 0
26 0 0 0
27 0 0 0
28 0 0 0
29 0 0 0
30 0 0 0
31 0 0 0
32 0 0 0
33 0 0 0
34 0 0 0
35 0 0 0
36 0 0 0
37 0 0 0
38 0 0 0
39 0 0 0
40 0 0 0
41 0 0 0
42 0 0 0
43 0 0 0
44 0 0 0
45 0 0 0
46 0 0 0
47 0 0 0
48 0 0 0
49 0 0 0
50 0 0 0
51 0 0 0
52 0 0 0
53 0 0 0
54 0 0 0
55 0 0 0
56 0 0 0
57 0 0 0
58 0 0 0
59 0 0 0
60 0 0 0
61 0 0 0
62 0 0 0
63 0 0 0
64 0 0 0
65 0 0 0
66 0 0 0
67 0 0 0
68 0 0 0
69 0 0 0
70 0 0 0
71 0 0 0
72 0 0 0
73 0 0 0
74 0 0 0
75 0 0 0
76 0 0 0
77 0 0 0
78 0 0 0
79 0 0 0
80 0 0 0
81 0 0 0
82 0 0 0
83 0 0 0
84 0 0 0
85 0 0 0
86 0 0 0
87 0 0 0
88 0 0 0
89 0 0 0
90 0 0 0
91 0 0 0
92 0 0 0
93 0 0 0
94 0 0 0
95 0 0 0
96 0 0 0
97 0 0 0
98 0 0 0
99 0 0 0
100 0 0 0
101 0 0 0
102 0 0 0
103 0 0 0
104 0 0 0
105 0 0 0
106 0 0 0
107 0 0 0
108 0 0 0
109 0 0 0
110 0 0 0
111 0 0 0
112 0 0 0
113 0 0 0
114 0 0 0
115 0 0 0
116 0 0 0
117 0 0 0
118 0 0 0
119 0 0 0
120 0 0 0
121 0 0 0
122 0 0 0
123 0 0 0
124 0 0 0
125 0 0 0
126 0 0 0
127 0 0 0
128 0 0 0
129 0 0 0
130 0 0 0
131 0 0 0
132 0 0 0
133 0 0 0
134 0 0 0
135 0 0 0
136 0 0 0
137 0 0 0
138 0 0 0
139 0 0 0
140 0 0 0
141 0 0 0
142 0 0 0
143 0 0 0
144 0 0 0
145 0 0 0
146 0 0 0
147 0 0 0
148 0 0 0
149 0 0 0
150 0 0 0
151 0 0 0
152 0 0 0
153 0 0 0
154 0 0 0
155 0 0 0
156 0 0 0
157 0 0 0
158 0 0 0
159 0 0 0
160 0 0 0
161 0 0 0
162 0 0 0
163 0 0 0
164 0 0 0
165 0 0 0
166 0 0 0
167 0 0 0
168 0 0 0
169 0 0 0
170 0 0 0
171 0 0 0
172 0 0 0
173 0 0 0
174 0 0 0
175 0 0 0
176 0 0 0
177 0 0 0
178 0 0 0
179 0 0 0
180 0 0 0
181 0 0 0
182 0 0 0
183 0 0 0
184 0 0 0
185 0 0 0
186 0 0 0
187 0 0 0
188 0 0 0
189 0 0 0
190 0 0 0
191 0 0 0
192 0 0 0
193 0 0 0
194 0 0 0
195 0 0 0
196 0 0 0
197 0 0 0
198 0 0 0
199 0 0 0
200 0 0 0
201 0 0 0
202 0 0 0
203 0 0 0
204 0 0 0
205 0 0 0
206 0 0 0
207 0 0 0
208 0 0 0
209 0 0 0
210 0 0 0
211 0 0 0
212 0 0 0
213 0 0 0
214 0 0 0
215 0 0 0
216 0 0 0
217 0 0 0
218 0 0 0
219 0 0 0
220 0 0 0
221 0 0 0
222 0 0 0
223 0 0 0
224 0 0 0
225 0 0 0
226 0 0 0
227 0 0 0
228 0 0 0
229 0 0 0
230 0 0 0
231 0 0 0
232 0 0 0
233 0 0 0
234 0 0 0
235 0 0 0
236 0 0 0
237 0 0 0
238 0 0 0
239 0 0 0
240 0 0 0
241 0 0 0
242 0 0 0
243 0 0 0
244 0 0 0
245 0 0 0
246 0 0 0
247 0 0 0
248 0 0 0
249 0 0 0
250 0 0 0
251 0 0 0
252 0 0 0
253 0 0 0
254 0 0 0
255 0 0 0
256 0 0 0
257 0 0 0
258 0 0 0
259 0 0 0
260 0 0 0
261 0 0 0
262 0 0 0
263 0 0 0
264 0 0 0
265 0 0 0
266 0 0 0
267 0 0 0
268 0 0 0
269 0 0 0
270 0 0 0
271 0 0 0
272 0 0 0
273 0 0 0
274 0 0 0
275 0 0 0
276 0 0 0
277 0 0 0
278 0 0 0
279 0 0 0
280 0 0 0
281 0 0 0
282 0 0 0
283 0 0 0
284 0 0 0
285 0 0 0
286 0 0 0
287 0 0 0
288 0 0 0
289 0 0 0
290 0 0 0
291 0 0 0
292 0 0 0
293 0 0 0
294 0 0 0
295 0 0 0
296 0 0 0
297 0 0 0
298 0 0 0
299 0 0 0
300 0 0 0
301 0 0 0
302 0 0 0
303 0 0 0
304 0 0 0
305 0 0 0
306 0 0 0
307 0 0 0
308 0 0 0
309 0 0 0
310 0 0 0
311 0 0 0
312 0 0 0
313 0 0 0
314 0 0 0
315 0 0 0
316 0 0 0
317 0 0 0
318 0 0 0
319 0 0 0
320 0 0 0
321 0 0 0
322 0 0 0
323 0 0 0
324 0 0 0
325 0 0 0
326 0 0 0
327 0 0 0
328 0 0 0
329 0 0 0
330 0 0 0
331 0 0 0
332 0 0 0
333 0 0 0
334 0 0 0
335 0 0 0
336 0 0 0
337 0 0 0
338 0 0 0
339 0 0 0
340 0 0 0
341 0 0 0
342 0 0 0
343 0 0 0
344 0 0 0
345 0 0 0
346 0 0 0
347 0 0 0
348 0 0 0
349 0 0 0
350 0 0 0
351 0 0 0
352 0 0 0
353 0 0 0
354 0 0 0
355 0 0 0
356 0 0 0
357 0 0 0
358 0 0 0
359 0 0 0
360 0 0 0
361 0 0 0
362 0 0 0
363 0 0 0
364 0 0 0
365 0 0 0
366 0 0 0
367 0 0 0
368 0 0 0
369 0 0 0
370 0 0 0
371 0 0 0
372 0 0 0
373 0 0 0
374 0 0 0
375 0 0 0
376 0 0 0
377 0 0 0
378 0 0 0
379 0 0 0
380 0 0 0
381 0 0 0
382 0 0 0
383 0 0 0
384 0 0 0
385 0 0 0
386 0 0 0
387 0 0 0
388 0 0 0
389 0 0 0
390 0 0 0
391 0 0 0
392 0 0 0
393 0 0 0
394 0 0 0
395 0 0 0
396 0 0 0
397 0 0 0
398 0 0 0
399 0 0 0
400 0 0 0
401 0 0 0
402 0 0 0
403 0 0 0
404 0 0 0
405 0 0 0
406 0 0 0
407 0 0 0
408 0 0 0
409 0 0 0
410 0 0 0
411 0 0 0
412 0 0 0
413 0 0 0
414 0 0 0
415 0 0 0
416 0 0 0
417 0 0 0
418 0 0 0
419 0 0 0
420 0 0 0
421 0 0 0
422 0 0 0
423 0 0 0
424 0 0 0
425 0 0 0
426 0 0 0
427 0 0 0
428 0 0 0
429 0 0 0
430 0 0 0
431 0 0 0
432 0 0 0
433 0 0 0
434 0 0 0
435 0 0 0
436 0 0 0
437 0 0 0
438 0 0 0
439 0 0 0
440 0 0 0
441 0 0 0
442 0 0 0
443 0 0 0
444 0 0 0
445 0 0 0
446 0 0 0
447 0 0 0
448 0 0 0
449 0 0 0
450 0 0 0
451 0 0 0
452 0 0 0
453 0 0 0
454 0 0 0
455 0 0 0
456 0 0 0
457 0 0 0
458 0 0 0
459 0 0 0
460 0 0 0
461 0 0 0
462 0 0 0
463 0 0 0
464 0 0 0
465 0 0 0
466 0 0 0
467 0 0 0
468 0 0 0
469 0 0 0
470 0 0 0
471 0 0 0
472 0 0 0
473 0 0 0
474 0 0 0
475 0 0 0
476 0 0 0
477 0 0 0
478 0 0 0
479 0 0 0
480 0 0 0
481 0 0 0
482 0 0 0
483 0 0 0
484 0 0 0
485 0 0 0
486 0 0 0
487 0 0 0
488 0 0 0
489 0 0 0
490 0 0 0
491 0 0 0
492 0 0 0
493 0 0 0
494 0 0 0
495 0 0 0
496 0 0 0
497 0 0 0
498 0 0 0
499 0 0 0
500 0 0 0
501 0 0 0
502 0 0 0
503 0 0 0
504 0 0 0
505 0 0 0
506 0 0 0
507 0 0 0
508 0 0 0
509 0 0 0
510 0 0 0
511 0 0 0
512 0 0 0
513 0 0 0
514 0 0 0
515 0 0 0
516 0 0 0
517 0 0 0
518 0 0 0
519 0 0 0
520 0 0 0
521 0 0 0
522 0 0 0
523 0 0 0
524 0 0 0
525 0 0 0
526 0 0 0
527 0 0 0
528 0 0 0
529 0 0 0
530 0 0 0
531 0 0 0
532 0 0 0
533 0 0 0
534 0 0 0
535 0 0 0
536 0 0 0
537 0 0 0
538 0 0 0
539 0 0 0
540 0 0 0
541 0 0 0
542 0 0 0
543 0 0 0
544 0 0 0
545 0 0 0
546 0 0 0
547 0 0 0
548 0 0 0
549 0 0 0
550 0 0 0
551 0 0 0
552 0 0 0
553 0 0 0
554 0 0 0
555 0 0 0
556 0 0 0
557 0 0 0
558 0 0 0
559 0 0 0
560 0 0 0
561 0 0 0
562 0 0 0
563 0 0 0
564 0 0 0
565 0 0 0
566 0 0 0
567 0 0 0
568 0 0 0
569 0 0 0
570 0 0 0
571 0 0 0
572 0 0 0
573 0 0 0
574 0 0 0
575 0 0 0
576 0 0 0
577 0 0 0
578 0 0 0
579 0 0 0
580 0 0 0
581 0 0 0
582 0 0 0
583 0 0 0
584 0 0 0
585 0 0 0
586 0 0 0
587 0 0 0
588 0 0 0
589 0 0 0
590 0 0 0
591 0 0 0
592 0 0 0
593 0 0 0
594 0 0 0
595 0 0 0
596 0 0 0
597 0 0 0
598 0 0 0
599 0 0 0
600 0 0 0
601 0 0 0
602 0 0 0
603 0 0 0
604 0 0 0
605 0 0 0
606 0 0 0
607 0 0 0
608 0 0 0
609 0 0 0
610 0 0 0
611 0 0 0
612 0 0 0
613 0 0 0
614 0 0 0
615 0 0 0
616 0 0 0
617 0 0 0
618 0 0 0
619 0 0 0
620 0 0 0
621 0 0 0
622 0 0 0
623 0 0 0
624 0 0 0
625 0 0 0
626 0 0 0
627 0 0 0
628 0 0 0
629 0 0 0
630 0 0 0
631 0 0 0
632 0 0 0
633 0 0 0
634 0 0 0
635 0 0 0
636 0 0 0
637 0 0 0
638 0 0 0
639 0 0 0
640 0 0 0
641 0 0 0
642 0 0 0
643 0 0 0
644 0 0 0
645 0 0 0
646 0 0 0
647 0 0 0
648 0 0 0
649 0 0 0
650 0 0 0
651 0 0 0
652 0 0 0
653 0 0 0
654 0 0 0
655 0 0 0
656 0 0 0
657 0 0 0
658 0 0 0
659 0 0 0
660 0 0 0
661 0 0 0
662 0 0 0
663 0 0 0
664 0 0 0
665 0 0 0
666 0 0 0
667 0 0 0
668 0 0 0
669 0 0 0
670 0 0 0
671 0 0 0
672 0 0 0
673 0 0 0
674 0 0 0
675 0 0 0
676 0 0 0
677 0 0 0
678 0 0 0
679 0 0 0
680 0 0 0
681 0 0 0
682 0 0 0
683 0 0 0
684 0 0 0
685 0 0 0
686 0 0 0
687 0 0 0
688 0 0 0
689 0 0 0
690 0 0 0
691 0 0 0
692 0 0 0
693 0 0 0
694 0 0 0
695 0 0 0
696 0 0 0
697 0 0 0
698 0 0 0
699 0 0 0
700 0 0 0
701 0 0 0
702 0 0 0
703 0 0 0
704 0 0 0
705 0 0 0
706 0 0 0
707 0 0 0
708 0 0 0
709 0 0 0
710 0 0 0
711 0 0 0
712 0 0 0
713 0 0 0
714 0 0 0
715 0 0 0
716 0 0 0
717 0 0 0
718 0 0 0
719 0 0 0
720 0 0 0
721 0 0 0
722 0 0 0
723 0 0 0
724 0 0 0
725 0 0 0
726 0 0 0
727 0 0 0
728 0 0 0
729 0 0 0
730 0 0 0
731 0 0 0
732 0 0 0
733 0 0 0
734 0 0 0
735 0 0 0
736 0 0 0
737 0 0 0
738 0 0 0
739 0 0 0
740 0 0 0
741 0 0 0
742 0 0 0
743 0 0 0
744 0 0 0
745 0 0 0
746 0 0 0
747 0 0 0
748 0 0 0
749 0 0 0
750 0 0 0
751 0 0 0
752 0 0 0
753 0 0 0
754 0 0 0
755 0 0 0
756 0 0 0
757 0 0 0
758 0 0 0
759 0 0 0
760 0 0 0
761 0 0 0
762 0 0 0
763 0 0 0
764 0 0 0
765 0 0 0
766 0 0 0
767 0 0 0
768 0 0 0
769 0 0 0
770 0 0 0
771 0 0 0
772 0 0 0
773 0 0 0
774 0 0 0
775 0 0 0
776 0 0 0
777 0 0 0
778 0 0 0
779 0 0 0
780 0 0 0
781 0 0 0
782 0 0 0
783 0 0 0
784 0 0 0
785 0 0 0
786 0 0 0
787 0 0 0
788 0 0 0
789 0 0 0
790 0 0 0
791 0 0 0
792 0 0 0
793 0 0 0
794 0 0 0
795 0 0 0
796 0 0 0
797 0 0 0
798 0 0 0
799 0 0 0
800 0 0 0
801 0 0 0
802 0 0 0
803 0 0 0
804 0 0 0
805 0 0 0
806 0 0 0
807 0 0 0
808 0 0 0
809 0 0 0
810 0 0 0
811 0 0 0
812 0 0 0
813 0 0 0
814 0 0 0
815 0 0 0
816 0 0 0
817 0 0 0
818 0 0 0
819 0 0 0
820 0 0 0
821 0 0 0
822 0 0 0
823 0 0 0
824 0 0 0
825 0 0 0
826 0 0 0
827 0 0 0
828 0 0 0
829 0 0 0
830 0 0 0
831 0 0 0
832 0 0 0
833 0 0 0
834 0 0 0
835 0 0 0
836 0 0 0
837 0 0 0
838 0 0 0
839 0 0 0
840 0 0 0
841 0 0 0
842 0 0 0
843 0 0 0
844 0 0 0
845 0 0 0
846 0 0 0
847 0 0 0
848 0 0 0
849 0 0 0
850 0 0 0
851 0 0 0
852 0 0 0
853 0 0 0
854 0 0 0
855 0 0 0
856 0 0 0
857 0 0 0
858 0 0 0
859 0 0 0
860 0 0 0
861 0 0 0
862 0 0 0
863 0 0 0
864 0 0 0
865 0 0 0
866 0 0 0
867 0 0 0
868 0 0 0
869 0 0 0
870 0 0 0
871 0 0 0
872 0 0 0
873 0 0 0
874 0 0 0
875 0 0 0
876 0 0 0
877 0 0 0
878 0 0 0
879 0 0 0
880 0 0 0
881 0 0 0
882 0 0 0
883 0 0 0
884 0 0 0
885 0 0 0
886 0 0 0
887 0 0 0
888 0 0 0
889 0 0 0
890 0 0 0
891 0 0 0
892 0 0 0
893 0 0 0
894 0 0 0
895 0 0 0
896 0 0 0
897 0 0 0
898 0 0 0
899 0 0 0
900 0 0 0
901 0 0 0
902 0 0 0
903 0 0 0
904 0 0 0
905 0 0 0
906 0 0 0
907 0 0 0
908 0 0 0
909 0 0 0
910 0 0 0
911 0 0 0
912 0 0 0
913 0 0 0
914 0 0 0
915 0 0 0
916 0 0 0
917 0 0 0
918 0 0 0
919 0 0 0
920 0 0 0
921 0 0 0
922 0 0 0
923 0 0 0
924 0 0 0
925 0 0 0
926 0 0 0
927 0 0 0
928 0 0 0
929 0 0 0
930 0 0 0
931 0 0 0
932 0 0 0
933 0 0 0
934 0 0 0
935 0 0 0
936 0 0 0
937 0 0 0
938 0 0 0
939 0 0 0
940 0 0 0
941 0 0 0
942 0 0 0
943 0 0 0
944 0 0 0
945 0 0 0
946 0 0 0
947 0 0 0
948 0 0 0
949 0 0 0
950 0 0 0
951 0 0 0
952 0 0 0
953 0 0 0
954 0 0 0
955 0 0 0
956 0 0 0
957 0 0 0
958 0 0 0
959 0 0 0
960 0 0 0
961 0 0 0
962 0 0 0
963 0 0 0
964 0 0 0
965 0 0 0
966 0 0 0
967 0 0 0
968 0 0 0
969 0 0 0
970 0 0 0
971 0 0 0
972 0 0 0
973 0 0 0
974 0 0 0
975 0 0 0
976 0 0 0
977 0 0 0
978 0 0 0
979 0 0 0
980 0 0 0
981 0 0 0
982 0 0 0
983 0 0 0
984 0 0 0
985 0 0 0
986 0 0 0
987 0 0 0
988 0 0 0
989 0 0 0
990 0 0 0
991 0 0 0
992 0 0 0
993 0 0 0
994 0 0 0
995 0 0 0
996 0 0 0
997 0 0 0
998 0 0 0
999 0 0 0
1000 0 0 0
1001 0 0 0
1002 0 0 0
1003 0 0 0
1004 0 0 0
1005 0 0 0
1006 0 0 0
1007 0 0 0
1008 0 0 0
1009 0 0 0
1010 0 0 0
1011 0 0 0
1012 0 0 0
1013 0 0 0
1014 0 0 0
1015 0 0 0
1016 0 0 0
1017 0 0 0
1018 0 0 0
1019 0 0 0
1020 0 0 0
1021 0 0 0
1022 0 0 0
1023 0 0 0
1024 0 0 0
1025 0 0 0
1026 0 0 0
1027 0 0 0
1028 0 0 0
1029 0 0 0
1030 0 0 0
1031 0 0 0
1032 0 0 0
1033 0 0 0
1034 0 0 0
1035 0 0 0
1036 0 0 0
1037 0 0 0
1038 0 0 0
1039 0 0 0
1040 0 0 0
1041 0 0 0
1042 0 0 0
1043 0 0 0
1044 0 0 0
1045 0 0 0
1046 0 0 0
1047 0 0 0
1048 0 0 0
1049 0 0 0
1050 0 0 0
1051 0 0 0
1052 0 0 0
1053 0 0 0
1054 0 0 0
1055 0 0 0
1056 0 0 0
1057 0 0 0
1058 0 0 0
1059 0 0 0
1060 0 0 0
1061 0 0 0
1062 0 0 0
1063 0 0 0
1064 0 0 0
1065 0 0 0
1066 0 0 0
1067 0 0 0
1068 0 0 0
1069 0 0 0
1070 0 0 0
1071 0 0 0
1072 0 0 0
1073 0 0 0
1074 0 0 0
1075 0 0 0
1076 0 0 0
1077 0 0 0
1078 0 0 0
1079 0 0 0
1080 0 0 0
1081 0 0 0
1082 0 0 0
1083 0 0 0
1084 0 0 0
1085 0 0 0
1086 0 0 0
1087 0 0 0
1088 0 0 0
1089 0 0 0
1090 0 0 0
1091 0 0 0
1092 0 0 0
1093 0 0 0
1094 0 0 0
1095 0 0 0
1096 0 0 0
1097 0 0 0
1098 0 0 0
1099 0 0 0
1100 0 0 0
1101 0 0 0
1102 0 0 0
1103 0 0 0
1104 0 0 0
1105 0 0 0
1106 0 0 0
1107 0 0 0
1108 0 0 0
1109 0 0 0
1110 0 0 0
1111 0 0 0
1112 0 0 0
1113 0 0 0
1114 0 0 0
1115 0 0 0
1116 0 0 0
1117 0 0 0
1118 0 0 0
1119 0 0 0
1120 0 0 0
1121 0 0 0
1122 0 0 0
1123 0 0 0
1124 0 0 0
1125 0 0 0
1126 0 0 0
1127 0 0 0
1128 0 0 0
1129 0 0 0
1130 0 0 0
1131 0 0 0
1132 0 0 0
1133 0 0 0
1134 0 0 0
1135 0 0 0
1136 0 0 0
1137 0 0 0
1138 0 0 0
1139 0 0 0
1140 0 0 0
1141 0 0 0
1142 0 0 0
1143 0 0 0
1144 0 0 0
1145 0 0 0
1146 0 0 0
1147 0 0 0
1148 0 0 0
1149 0 0 0
1150 0 0 0
1151 0 0 0
1152 0 0 0
1153 0 0 0
1154 0 0 0
1155 0 0 0
1156 0 0 0
1157 0 0 0
1158 0 0 0
1159 0 0 0
1160 0 0 0
1161 0 0 0
1162 0 0 0
1163 0 0 0
1164 0 0 0
1165 0 0 0
1166 0 0 0
1167 0 0 0
1168 0 0 0
1169 0 0 0
1170 0 0 0
1171 0 0 0
1172 0 0 0
1173 0 0 0
1174 0 0 0
1175 0 0 0
1176 0 0 0
1177 0 0 0
1178 0 0 0
1179 0 0 0
1180 0 0 0
1181 0 0 0
1182 0 0 0
1183 0 0 0
1184 0 0 0
1185 0 0 0
1186 0 0 0
1187 0 0 0
1188 0 0 0
1189 0 0 0
1190 0 0 0
1191 0 0 0
1192 0 0 0
1193 0 0 0
1194 0 0 0
1195 0 0 0
1196 0 0 0
1197 0 0 0
1198 0 0 0
1199 0 0 0
1200 0 0 0
1201 0 0 0
1202 0 0 0
1203 0 0 0
1204 0 0 0
1205 0 0 0
1206 0 0 0
1207 0 0 0
1208 0 0 0
1209 0 0 0
1210 0 0 0
1211 0 0 0
1212 0 0 0
1213 0 0 0
1214 0 0 0
1215 0 0 0
1216 0 0 0
1217 0 0 0
1218 0 0 0
1219 0 0 0
1220 0 0 0
1221 0 0 0
1222 0 0 0
1223 0 0 0
1224 0 0 0
1225 0 0 0
1226 0 0 0
1227 0 0 0
1228 0 0 0
1229 0 0 0
1230 0 0 0
1231 0 0 0
1232 0 0 0
1233 0 0 0
1234 0 0 0
1235 0 0 0
1236 0 0 0
1237 0 0 0
1238 0 0 0
1239 0 0 0
1240 0 0 0
1241 0 0 0
1242 0 0 0
1243 0 0 0
1244 0 0 0
1245 0 0 0
1246 0 0 0
1247 0 0 0
1248 0 0 0
1249 0 0 0
1250 0 0 0
1251 0 0 0
1252 0 0 0
1253 0 0 0
1254 0 0 0
1255 0 0 0
1256 0 0 0
1257 0 0 0
1258 0 0 0
1259 0 0 0
1260 0 0 0
1261 0 0 0
1262 0 0 0
1263 0 0 0
1264 0 0 0
1265 0 0 0
1266 0 0 0
1267 0 0 0
1268 0 0 0
1269 0 0 0
1270 0 0 0
1271 0 0 0
1272 0 0 0
1273 0 0 0
1274 0 0 0
1275 0 0 0
1276 0 0 0
1277 0 0 0
1278 0 0 0
1279 0 0 0
1280 0 0 0
1281 0 0 0
1282 0 0 0
1283 0 0 0
1284 0 0 0
1285 0 0 0
1286 0 0 0
1287 0 0 0
1288 0 0 0
1289 0 0 0
1290 0 0 0

Bonds

1 1 1 2
2 1 2 3
3 1 3 4
4 1 4 5
5 1 5 6
6 1 6 7
7 1 7 8
8 1 8 9
9 1 9 10
10 1 10 11
11 1 11 12
12 1 12 13
13 1 13 14
14 1 14 15
15 1 15 16
16 1 16 17
17 1 17 18
18 1 18 19
19 1 19 20
20 1 20 21
21 1 21 22
22 1 22 23
23 1 23 24
24 1 24 25
25 1 25 26
26 1 26 27
27 1 27 28
28 1 28 29
29 1 29 30
30 1 30 31
31 1 31 32
32 1 32 33
33 1 33 34
34 1 34 35
35 1 35 36
36 1 36 37
37 1 37 38
38 1 38 39
39 1 39 40
40 1 40 41
41 1 41 42
42 1 42 43
43 1 43 44
44 1 44 45
45 1 45 46
46 1 46 47
47 1 47 48
48 1 48 49
49 1 49 50
50 1 50 51
51 1 51 52
52 1 52 53
53 1 53 54
54 1 54 55
55 1 55 56
56 1 56 57
57 1 57 58
58 1 58 59
59 1 59 60
60 1 60 61
61 1 61 62
62 1 62 63
63 1 63 64
64 1 64 65
65 1 65 66
66 1 66 67
67 1 67 68
68 1 68 69
69 1 69 70
70 1 70 71
71 1 71 72
72 1 72 73
73 1 73 74
74 1 74 75
75 1 75 76
76 1 76 77
77 1 77 78
78 1 78 79
79 1 79 80
80 1 80 81
81 1 81 82
82 1 82 83
83 1 83 84
84 1 84 85
85 1 85 86
86 1 86 87
87 1 87 88
88 1 88 89
89 1 89 90
90 1 90 91
91 1 91 92
92 1 92 93
93 1 93 94
94 1 94 95
95 1 95 96
96 1 96 97
97 1 97 98
98 1 98 99
99 1 99 100
100 1 100 101
101 1 101 102
102 1 102 103
103 1 103 104
104 1 104 105
105 1 105 106
106 1 106 107
107 1 107 108
108 1 108 109
109 1 109 110
110 1 110 111
111 1 111 112
112 1 112 113
113 1 113 114
114 1 114 115
115 1 115 116
116 1 116 117
117 1 117 118
118 1 118 119
119 1 119 120
120 1 120 121
121 1 121 122
122 1 122 123
123 1 124 125
124 1 125 126
125 1 126 127
126 1 127 128
127 1 128 129
128 1 129 130
129 1 130 131
130 1 131 132
131 1 132 133
132 1 133 134
133 1 134 135
134 1 135 136
135 1 136 137
136 1 137 138
137 1 138 139
138 1 139 140
139 1 140 141
140 1 141 142
141 1 142 143
142 1 143 144
143 1 144 145
144 1 145 146
145 1 146 147
146 1 147 148
147 1 148 149
148 1 149 150
149 1 150 151
150 1 151 152
151 1 152 153
152 1 153 154
153 1 154 155
154 1 155 156
155 1 156 157
156 1 157 158
157 1 158 159
158 1 159 160
159 1 160 161
160 1 161 162
161 1 162 163
162 1 163 164
163 1 164 165
164 1 165 166
165 1 166 167
166 1 167 168
167 1 168 169
168 1 169 170
169 1 170 171
170 1 171 172
171 1 172 173
172 1 173 174
173 1 174 175
174 1 175 176
175 1 176 177
176 1 177 178
177 1 178 179
178 1 179 180
179 1 180 181
180 1 181 182
181 1 182 183
182 1 183 184
183 1 184 185
184 1 185 186
185 1 186 187
186 1 187 188
187 1 188 189
188 1 189 190
189 1 190 191
190 1 191 192
191 1 192 193
192 1 193 194
193 1 194 195
194 1 195 196
195 1 196 197
196 1 197 198
197 1 198 199
198 1 199 200
199 1 200 201
200 1 201 202
201 1 202 203
202 1 203 204
203 1 204 205
204 1 205 206
205 1 206 207
206 1 207 208
207 1 208 209
208 1 209 210
209 1 210 211
210 1 211 212
211 1 212 213
212 1 213 214
213 1 214 215
214 1 215 216
215 1 216 217
216 1 217 218
217 1 218 219
218 1 219 220
219 1 220 221
220 1 221 222
221 1 222 223
222 1 223 224
223 1 224 225
224 1 225 226
225 1 226 227
226 1 227 228
227 1 228 229
228 1 229 230
229 1 230 231
230 1 231 232
231 1 232 233
232 1 233 234
233 1 234 235
234 1 235 236
235 1 236 237
236 1 237 238
237 1 238 239
238 1 239 240
239 1 240 241
240 1 241 242
241 1 242 243
242 1 243 244
243 1 244 245
244 1 245 246
245 1 246 247
246 1 247 248
247 1 248 249
248 1 249 250
249 1 250 251
250 1 251 252
251 1 252 253
252 1 253 254
253 1 254 255
254 1 255 256
255 1 256 257
256 1 257 258
257 1 258 259
258 1 259 260
259 1 260 261
260 1 261 262
261 1 262 263
262 1 263 264
263 1 264 265
264 1 265 266
265 1 266 267
266 1 267 268
267 1 268 269
268 1 269 270
269 1 270 271
270 1 271 272
271 1 272 273
272 1 273 274
273 1 274 275
274 1 275 276
275 1 276 277
276 1 277 278
277 1 278 279
278 1 279 280
279 1 280 281
280 1 281 282
281 1 282 283
282 1 283 284
283 1 284 285
284 1 285 286
285 1 286 287
286 1 287 288
287 1 288 289
288 1 289 290
289 1 290 291
290 1 291 292
291 1 292 293
292 1 293 294
293 1 294 295
294 1 295 296
295 1 296 297
296 1 297 298
297 1 298 299
298 1 299 300
299 1 300 301
300 1 301 302
301 1 302 303
302 1 303 304
303 1 304 305
304 1 305 306
305 1 306 307
306 1 307 308
307 1 308 309
308 1 309 310
309 1 310 311
310 1 311 312
311 1 312 313
312 1 313 314
313 1 314 315
314 1 315 316
315 1 316 317
316 1 317 318
317 1 318 319
318 1 319 320
319 1 320 321
320 1 321 322
321 1 322 323
322 1 323 324
323 1 324 325
324 1 325 326
325 1 326 327
326 1 327 328
327 1 328 329
328 1 329 330
329 1 330 331
330 1 331 332
331 1 332 333
332 1 333 334
333 1 334 335
334 1 335 336
335 1 336 337
336 1 337 338
337 1 338 339
338 1 339 340
339 1 340 341
340 1 341 342
341 1 342 343
342 1 343 344
343 1 344 345
344 1 345 346
345 1 346 347
346 1 347 348
347 1 348 349
348 1 349 350
349 1 350 351
350 1 351 352
351 1 352 353
352 1 353 354
353 1 354 355
354 1 355 356
355 1 356 357
356 1 357 358
357 1 358 359
358 1 359 360
359 1 360 361
360 1 361 362
361 1 362 363
362 1 363 364
363 1 364 365
364 1 365 366
365 1 366 367
366 1 367 368
367 1 368 369
368 1 369 370

Angles

1 1 1 2 3
2 1 2 3 4
3 1 3 4 5
4 1 4 5 6
5 1 5 6 7
6 1 6 7 8
7 1 7 8 9
8 1 8 9 10
9 1 9 10 11
10 1 10 11 12
11 1 11 12 13
12 1 12 13 14
13 1 13 14 15
14 1 14 15 16
15 1 15 16 17
16 1 16 17 18
17 1 17 18 19
18 1 18 19 20
19 1 19 20 21
20 1 20 21 22
21 1 21 22 23
22 1 22 23 24
23 1 23 24 25
24 1 24 25 26
25 1 25 26 27
26 1 26 27 28
27 1 27 28 29
28 1 28 29 30
29 1 29 30 31
30 1 30 31 32
31 1 31 32 33
32 1 32 33 34
33 1 33 34 35
34 1 34 35 36
35 1 35 36 37
36 1 36 37 38
37 1 37 38 39
38 1 38 39 40
39 1 39 40 41
40 1 40 41 42
41 1 41 42 43
42 1 42 43 44
43 1 43 44 45
44 1 44 45 46
45 1 45 46 47
46 1 46 47 48
47 1 47 48 49
48 1 48 49 50
49 1 49 50 51
50 1 50 51 52
51 1 51 52 53
52 1 52 53 54
53 1 53 54 55
54 1 54 55 56
55 1 55 56 57
56 1 56 57 58
57 1 57 58 59
58 1 58 59 60
59 1 59 60 61
60 1 60 61 62
61 1 61 62 63
62 1 62 63 64
63 1 63 64 65
64 1 64 65 66
65 1 65 66 67
66 1 66 67 68
67 1 67 68 69
68 1 68 69 70
69 1 69 70 71
70 1 70 71 72
71 1 71 72 73
72 1 72 73 74
73 1 73 74 75
74 1 74 75 76
75 1 75 76 77
76 1 76 77 78
77 1 77 78 79
78 1 78 79 80
79 1 79 80 81
80 1 80 81 82
81 1 81 82 83
82 1 82 83 84
83 1 83 84 85
84 1 84 85 86
85 1 85 86 87
86 1 86 87 88
87 1 87 88 89
88 1 88 89 90
89 1 89 90 91
90 1 90 91 92
91 1 91 92 93
92 1 92 93 94
93 1 93 94 95
94 1 94 95 96
95 1 95 96 97
96 1 96 97 98
97 1 97 98 99
98 1 98 99 100
99 1 99 100 101
100 1 100 101 102
101 1 101 102 103
102 1 102 103 104
103 1 103 104 105
104 1 104 105 106
105 1 105 106 107
106 1 106 107 108
107 1 107 108 109
108 1 108 109 110
109 1 109 110 111
110 1 110 111 112
111 1 111 112 113
112 1 112 113 114
113 1 113 114 115
114 1 114 115 116
115 1 115 116 117
116 1 116 117 118
117 1 117 118 119
118 1 118 119 120
119 1 119 120 121
120 1 120 121 122
121 1 121 122 123
122 1 124 125 126
123 1 125 126 127
124 1 126 127 128
125 1 127 128 129
126 1 128 129 130
127 1 129 130 131
128 1 130 131 132
129 1 131 132 133
130 1 132 133 134
131 1 133 134 135
132 1 134 135 136
133 1 135 136 137
134 1 136 137 138
135 1 137 138 139
136 1 138 139 140
137 1 139 140 141
138 1 140 141 142
139 1 141 142 143
140 1 142 143 144
141 1 143 144 145
142 1 144 145 146
143 1 145 146 147
144 1 146 147 148
145 1 147 148 149
146 1 148 149 150
147 1 149 150 151
148 1 150 151 152
149 1 151 152 153
150 1 152 153 154
151 1 153 154 155
152 1 154 155 156
153 1 155 156 157
154 1 156 157 158
155 1 157 158 159
156 1 158 159 160
157 1 159 160 161
158 1 160 161 162
159 1 161 162 163
160 1 162 163 164
161 1 163 164 165
162 1 164 165 166
163 1 165 166 167
164 1 166 167 168
165 1 167 168 169
166 1 168 169 170
167 1 169 170 171
168 1 170 171 172
169 1 171 172 173
170 1 172 173 174
171 1 173 174 175
172 1 174 175 176
173 1 175 176 177
174 1 176 177 178
175 1 177 178 179
176 1 178 179 180
177 1 179 180 181
178 1 180 181 182
179 1 181 182 183
180 1 182 183 184
181 1 183 184 185
182 1 184 185 186
183 1 185 186 187
184 1 186 187 188
185 1 187 188 189
186 1 188 189 190
187 1 189 190 191
188 1 190 191 192
189 1 191 192 193
190 1 192 193 194
191 1 193 194 195
192 1 194 195 196
193 1 195 196 197
194 1 196 197 198
195 1 197 198 199
196 1 198 199 200
197 1 199 200 201
198 1 200 201 202
199 1 201 202 203
200 1 202 203 204
201 1 203 204 205
202 1 204 205 206
203 1 205 206 207
204 1 206 207 208
205 1 207 208 209
206 1 208 209 210
207 1 209 210 211
208 1 210 211 212
209 1 211 212 213
210 1 212 213 214
211 1 213 214 215
212 1 214 215 216
213 1 215 216 217
214 1 216 217 218
215 1 217 218 219
216 1 218 219 220
217 1 219 220 221
218 1 220 221 222
219 1 221 222 223
220 1 222 223 224
221 1 223 224 225
222 1 224 225 226
223 1 225 226 227
224 1 226 227 228
225 1 227 228 229
226 1 228 229 230
227 1 229 230 231
228 1 230 231 232
229 1 231 232 233
230 1 232 233 234
231 1 233 234 235
232 1 234 235 236
233 1 235 236 237
234 1 236 237 238
235 1 237 238 239
236 1 238 239 240
237 1 239 240 241
238 1 240 241 242
239 1 241 242 243
240 1 242 243 244
241 1 243 244 245
242 1 244 245 246
243 1 245 246 247
244 1 246 247 248
245 1 247 248 249
246 1 248 249 250
247 1 249 250 251
248 1 250 251 252
249 1 251 252 253
250 1 252 253 254
251 1 253 254 255
252 1 254 255 256
253 1 255 256 257
254 1 256 257 258
255 1 257 258 259
256 1 258 259 260
257 1 259 260 261
258 1 260 261 262
259 1 261 262 263
260 1 262 263 264
261 1 263 264 265
262 1 264 265 266
263 1 265 266 267
264 1 266 267 268
265 1 267 268 269
266 1 268 269 270
267 1 269 270 271
268 1 270 271 272
269 1 271 272 273
270 1 272 273 274
271 1 273 274 275
272 1 274 275 276
273 1 275 276 277
274 1 276 277 278
275 1 277 278 279
276 1 278 279 280
277 1 279 280 281
278 1 280 281 282
279 1 281 282 283
280 1 282 283 284
281 1 283 284 285
282 1 284 285 286
283 1 285 286 287
284 1 286 287 288
285 1 287 288 289
286 1 288 289 290
287 1 289 290 291
288 1 290 291 292
289 1 291 292 293
290 1 292 293 294
291 1 293 294 295
292 1 294 295 296
293 1 295 296 297
294 1 296 297 298
295 1 297 298 299
296 1 298 299 300
297 1 299 300 301
298 1 300 301 302
299 1 301 302 303
300 1 302 303 304
301 1 303 304 305
302 1 304 305 306
303 1 305 306 307
304 1 306 307 308
305 1 307 308 309
306 1 308 309 310
307 1 309 310 311
308 1 310 311 312
309 1 311 312 313
310 1 312 313 314
311 1 313 314 315
312 1 314 315 316
313 1 315 316 317
314 1 316 317 318
315 1 317 318 319
316 1 318 319 320
317 1 319 320 321
318 1 320 321 322
319 1 321 322 323
320 1 322 323 324
321 1 323 324 325
322 1 324 325 326
323 1 325 326 327
324 1 326 327 328
325 1 327 328 329
326 1 328 329 330
327 1 329 330 331
328 1 330 331 332
329 1 331 332 333
330 1 332 333 334
331 1 333 334 335
332 1 334 335 336
333 1 335 336 337
334 1 336 337 338
335 1 337 338 339
336 1 338 339 340
337 1 339 340 341
338 1 340 341 342
339 1 341 342 343
340 1 342 343 344
341 1 343 344 345
342 1 344 345 346
343 1 345 346 347
344 1 346 347 348
345 1 347 348 349
346 1 348 349 350
347 1 349 350 351
348 1 350 351 352
349 1 351 352 353
350 1 352 353 354
351 1 353 354 355
352 1 354 355 356
353 1 355 356 357
354 1 356 357 358
355 1 357 358 359
356 1 358 359 360
357 1 359 360 361
358 1 360 361 362
359 1 361 362 363
360 1 362 363 364
361 1 363 364 365
362 1 364 365 366
363 1 365 366 367
364 1 366 367 368
365 1 367 368 369
366 1 368 369 370
