LAMMPS input file for a BOX simulation to test induced gene movement in a small shoe box.

1290 atoms
368 bonds
366 angles

11 atom types
2 bond types
2 angle types

-13.0 13.0 xlo xhi
-9.5 9.5 ylo yhi
-7.0 7.0 zlo zhi

Masses

1 1
2 1
3 1
4 1
5 1
6 1
7 1
8 1
9 1
10 1
11 1

Atoms

1 1 1 -11 -3.75 0 0 0 0
2 1 1 -11 -3.6885245901639343 0 0 0 0
3 1 1 -11 -3.627049180327869 0 0 0 0
4 1 1 -11 -3.5655737704918034 0 0 0 0
5 1 1 -11 -3.5040983606557377 0 0 0 0
6 1 1 -11 -3.442622950819672 0 0 0 0
7 1 1 -11 -3.3811475409836067 0 0 0 0
8 1 1 -11 -3.319672131147541 0 0 0 0
9 1 1 -11 -3.2581967213114753 0 0 0 0
10 1 1 -11 -3.19672131147541 0 0 0 0
11 1 1 -11 -3.1352459016393444 0 0 0 0
12 1 1 -11 -3.0737704918032787 0 0 0 0
13 1 1 -11 -3.0122950819672134 0 0 0 0
14 1 1 -11 -2.9508196721311477 0 0 0 0
15 1 1 -11 -2.889344262295082 0 0 0 0
16 1 1 -11 -2.8278688524590163 0 0 0 0
17 1 1 -11 -2.7663934426229506 0 0 0 0
18 1 1 -11 -2.7049180327868854 0 0 0 0
19 1 1 -11 -2.6434426229508197 0 0 0 0
20 1 1 -11 -2.581967213114754 0 0 0 0
21 1 1 -11 -2.5204918032786887 0 0 0 0
22 1 1 -11 -2.459016393442623 0 0 0 0
23 1 1 -11 -2.3975409836065573 0 0 0 0
24 1 1 -11 -2.336065573770492 0 0 0 0
25 1 1 -11 -2.2745901639344264 0 0 0 0
26 1 1 -11 -2.2131147540983607 0 0 0 0
27 1 1 -11 -2.1516393442622954 0 0 0 0
28 1 1 -11 -2.0901639344262293 0 0 0 0
29 1 1 -11 -2.028688524590164 0 0 0 0
30 1 1 -11 -1.9672131147540983 0 0 0 0
31 1 1 -11 -1.9057377049180328 0 0 0 0
32 1 1 -11 -1.8442622950819672 0 0 0 0
33 1 1 -11 -1.7827868852459017 0 0 0 0
34 1 1 -11 -1.721311475409836 0 0 0 0
35 1 1 -11 -1.6598360655737707 0 0 0 0
36 1 1 -11 -1.598360655737705 0 0 0 0
37 1 1 -11 -1.5368852459016393 0 0 0 0
38 1 9 -11 -1.4754098360655736 0 0 0 0
39 1 9 -11 -1.4139344262295084 0 0 0 0
40 1 9 -11 -1.3524590163934427 0 0 0 0
41 1 9 -11 -1.290983606557377 0 0 0 0
42 1 9 -11 -1.2295081967213117 0 0 0 0
43 1 9 -11 -1.168032786885246 0 0 0 0
44 1 9 -11 -1.1065573770491803 0 0 0 0
45 1 9 -11 -1.0450819672131146 0 0 0 0
46 1 9 -11 -0.9836065573770494 0 0 0 0
47 1 9 -11 -0.9221311475409837 0 0 0 0
48 1 9 -11 -0.860655737704918 0 0 0 0
49 1 9 -11 -0.7991803278688527 0 0 0 0
50 1 9 -11 -0.737704918032787 0 0 0 0
51 1 9 -11 -0.6762295081967213 0 0 0 0
52 1 9 -11 -0.6147540983606556 0 0 0 0
53 1 9 -11 -0.5532786885245904 0 0 0 0
54 1 9 -11 -0.4918032786885247 0 0 0 0
55 1 9 -11 -0.430327868852459 0 0 0 0
56 1 9 -11 -0.3688524590163933 0 0 0 0
57 1 9 -11 -0.30737704918032804 0 0 0 0
58 1 9 -11 -0.24590163934426235 0 0 0 0
59 1 9 -11 -0.18442622950819665 0 0 0 0
60 1 9 -11 -0.1229508196721314 0 0 0 0
61 1 9 -11 -0.0614754098360657 0 0 0 0
62 1 9 -11 0.0 0 0 0 0
63 1 9 -11 0.0614754098360657 0 0 0 0
64 1 9 -11 0.12295081967213095 0 0 0 0
65 1 9 -11 0.18442622950819665 0 0 0 0
66 1 9 -11 0.24590163934426235 0 0 0 0
67 1 9 -11 0.30737704918032804 0 0 0 0
68 1 9 -11 0.3688524590163933 0 0 0 0
69 1 9 -11 0.43032786885245855 0 0 0 0
70 1 9 -11 0.4918032786885247 0 0 0 0
71 1 9 -11 0.55327868852459 0 0 0 0
72 1 9 -11 0.6147540983606561 0 0 0 0
73 1 9 -11 0.6762295081967213 0 0 0 0
74 1 9 -11 0.7377049180327866 0 0 0 0
75 1 9 -11 0.7991803278688527 0 0 0 0
76 1 9 -11 0.860655737704918 0 0 0 0
77 1 9 -11 0.9221311475409832 0 0 0 0
78 1 9 -11 0.9836065573770494 0 0 0 0
79 1 9 -11 1.0450819672131146 0 0 0 0
80 1 9 -11 1.10655737704918 0 0 0 0
81 1 9 -11 1.168032786885246 0 0 0 0
82 1 9 -11 1.2295081967213113 0 0 0 0
83 1 9 -11 1.2909836065573765 0 0 0 0
84 1 9 -11 1.3524590163934427 0 0 0 0
85 1 9 -11 1.413934426229508 0 0 0 0
86 1 9 -11 1.475409836065574 0 0 0 0
87 1 9 -11 1.5368852459016393 0 0 0 0
88 1 1 -11 1.5983606557377046 0 0 0 0
89 1 1 -11 1.6598360655737707 0 0 0 0
90 1 1 -11 1.721311475409836 0 0 0 0
91 1 1 -11 1.7827868852459012 0 0 0 0
92 1 1 -11 1.8442622950819674 0 0 0 0
93 1 1 -11 1.9057377049180326 0 0 0 0
94 1 1 -11 1.9672131147540979 0 0 0 0
95 1 1 -11 2.028688524590164 0 0 0 0
96 1 1 -11 2.0901639344262293 0 0 0 0
97 1 1 -11 2.1516393442622945 0 0 0 0
98 1 1 -11 2.2131147540983607 0 0 0 0
99 1 1 -11 2.274590163934426 0 0 0 0
100 1 1 -11 2.336065573770492 0 0 0 0
101 1 1 -11 2.3975409836065573 0 0 0 0
102 1 1 -11 2.4590163934426226 0 0 0 0
103 1 1 -11 2.5204918032786887 0 0 0 0
104 1 1 -11 2.581967213114754 0 0 0 0
105 1 1 -11 2.643442622950819 0 0 0 0
106 1 1 -11 2.7049180327868854 0 0 0 0
107 1 1 -11 2.7663934426229506 0 0 0 0
108 1 1 -11 2.827868852459016 0 0 0 0
109 1 1 -11 2.889344262295082 0 0 0 0
110 1 1 -11 2.9508196721311473 0 0 0 0
111 1 1 -11 3.0122950819672134 0 0 0 0
112 1 1 -11 3.0737704918032787 0 0 0 0
113 1 1 -11 3.135245901639344 0 0 0 0
114 1 1 -11 3.19672131147541 0 0 0 0
115 1 1 -11 3.2581967213114753 0 0 0 0
116 1 1 -11 3.3196721311475406 0 0 0 0
117 1 1 -11 3.3811475409836067 0 0 0 0
118 1 1 -11 3.442622950819672 0 0 0 0
119 1 1 -11 3.504098360655737 0 0 0 0
120 1 1 -11 3.5655737704918034 0 0 0 0
121 1 1 -11 3.6270491803278686 0 0 0 0
122 1 1 -11 3.688524590163934 0 0 0 0
123 1 1 -11 3.75 0 0 0 0
124 2 1 11 -3.75 0 0 0 0
125 2 1 11 -3.7195121951219514 0 0 0 0
126 2 1 11 -3.6890243902439024 0 0 0 0
127 2 1 11 -3.658536585365854 0 0 0 0
128 2 1 11 -3.6280487804878048 0 0 0 0
129 2 1 11 -3.597560975609756 0 0 0 0
130 2 1 11 -3.567073170731707 0 0 0 0
131 2 1 11 -3.5365853658536586 0 0 0 0
132 2 1 11 -3.5060975609756095 0 0 0 0
133 2 1 11 -3.475609756097561 0 0 0 0
134 2 1 11 -3.4451219512195124 0 0 0 0
135 2 1 11 -3.4146341463414633 0 0 0 0
136 2 1 11 -3.3841463414634148 0 0 0 0
137 2 1 11 -3.3536585365853657 0 0 0 0
138 2 1 11 -3.323170731707317 0 0 0 0
139 2 1 11 -3.2926829268292686 0 0 0 0
140 2 1 11 -3.2621951219512195 0 0 0 0
141 2 1 11 -3.2317073170731705 0 0 0 0
142 2 1 11 -3.201219512195122 0 0 0 0
143 2 1 11 -3.1707317073170733 0 0 0 0
144 2 1 11 -3.1402439024390243 0 0 0 0
145 2 1 11 -3.1097560975609757 0 0 0 0
146 2 1 11 -3.0792682926829267 0 0 0 0
147 2 1 11 -3.048780487804878 0 0 0 0
148 2 1 11 -3.0182926829268295 0 0 0 0
149 2 1 11 -2.9878048780487805 0 0 0 0
150 2 1 11 -2.9573170731707314 0 0 0 0
151 2 1 11 -2.926829268292683 0 0 0 0
152 2 1 11 -2.8963414634146343 0 0 0 0
153 2 1 11 -2.8658536585365852 0 0 0 0
154 2 1 11 -2.8353658536585367 0 0 0 0
155 2 1 11 -2.8048780487804876 0 0 0 0
156 2 1 11 -2.774390243902439 0 0 0 0
157 2 1 11 -2.7439024390243905 0 0 0 0
158 2 1 11 -2.7134146341463414 0 0 0 0
159 2 1 11 -2.6829268292682924 0 0 0 0
160 2 1 11 -2.652439024390244 0 0 0 0
161 2 1 11 -2.6219512195121952 0 0 0 0
162 2 1 11 -2.5914634146341466 0 0 0 0
163 2 1 11 -2.5609756097560976 0 0 0 0
164 2 1 11 -2.5304878048780486 0 0 0 0
165 2 1 11 -2.5 0 0 0 0
166 2 1 11 -2.4695121951219514 0 0 0 0
167 2 1 11 -2.4390243902439024 0 0 0 0
168 2 1 11 -2.408536585365854 0 0 0 0
169 2 1 11 -2.3780487804878048 0 0 0 0
170 2 1 11 -2.347560975609756 0 0 0 0
171 2 1 11 -2.3170731707317076 0 0 0 0
172 2 1 11 -2.2865853658536586 0 0 0 0
173 2 1 11 -2.2560975609756095 0 0 0 0
174 2 1 11 -2.225609756097561 0 0 0 0
175 2 1 11 -2.1951219512195124 0 0 0 0
176 2 1 11 -2.1646341463414633 0 0 0 0
177 2 1 11 -2.1341463414634148 0 0 0 0
178 2 1 11 -2.1036585365853657 0 0 0 0
179 2 1 11 -2.073170731707317 0 0 0 0
180 2 1 11 -2.0426829268292686 0 0 0 0
181 2 1 11 -2.0121951219512195 0 0 0 0
182 2 1 11 -1.9817073170731707 0 0 0 0
183 2 1 11 -1.951219512195122 0 0 0 0
184 2 1 11 -1.9207317073170733 0 0 0 0
185 2 1 11 -1.8902439024390245 0 0 0 0
186 2 1 11 -1.8597560975609757 0 0 0 0
187 2 1 11 -1.829268292682927 0 0 0 0
188 2 1 11 -1.798780487804878 0 0 0 0
189 2 1 11 -1.7682926829268293 0 0 0 0
190 2 1 11 -1.7378048780487805 0 0 0 0
191 2 1 11 -1.707317073170732 0 0 0 0
192 2 1 11 -1.6768292682926829 0 0 0 0
193 2 1 11 -1.6463414634146343 0 0 0 0
194 2 1 11 -1.6158536585365852 0 0 0 0
195 2 1 11 -1.5853658536585367 0 0 0 0
196 2 1 11 -1.5548780487804876 0 0 0 0
197 2 1 11 -1.524390243902439 0 0 0 0
198 2 1 11 -1.4939024390243905 0 0 0 0
199 2 1 11 -1.4634146341463414 0 0 0 0
200 2 1 11 -1.4329268292682928 0 0 0 0
201 2 1 11 -1.4024390243902438 0 0 0 0
202 2 1 11 -1.3719512195121952 0 0 0 0
203 2 1 11 -1.3414634146341462 0 0 0 0
204 2 1 11 -1.3109756097560976 0 0 0 0
205 2 1 11 -1.280487804878049 0 0 0 0
206 2 1 11 -1.25 0 0 0 0
207 2 1 11 -1.2195121951219514 0 0 0 0
208 2 1 11 -1.1890243902439024 0 0 0 0
209 2 1 11 -1.1585365853658538 0 0 0 0
210 2 1 11 -1.1280487804878048 0 0 0 0
211 2 1 11 -1.0975609756097562 0 0 0 0
212 2 1 11 -1.0670731707317076 0 0 0 0
213 2 1 11 -1.0365853658536586 0 0 0 0
214 2 1 11 -1.00609756097561 0 0 0 0
215 2 1 11 -0.975609756097561 0 0 0 0
216 2 1 11 -0.9451219512195124 0 0 0 0
217 2 1 11 -0.9146341463414633 0 0 0 0
218 2 1 11 -0.8841463414634148 0 0 0 0
219 2 1 11 -0.8536585365853657 0 0 0 0
220 2 1 11 -0.8231707317073171 0 0 0 0
221 2 1 11 -0.7926829268292686 0 0 0 0
222 2 1 11 -0.7621951219512195 0 0 0 0
223 2 1 11 -0.7317073170731709 0 0 0 0
224 2 1 11 -0.7012195121951219 0 0 0 0
225 2 1 11 -0.6707317073170733 0 0 0 0
226 2 1 11 -0.6402439024390243 0 0 0 0
227 2 1 11 -0.6097560975609757 0 0 0 0
228 2 1 11 -0.5792682926829267 0 0 0 0
229 2 1 11 -0.5487804878048781 0 0 0 0
230 2 1 11 -0.5182926829268295 0 0 0 0
231 2 1 11 -0.4878048780487805 0 0 0 0
232 2 1 11 -0.4573170731707319 0 0 0 0
233 2 1 11 -0.42682926829268286 0 0 0 0
234 2 1 11 -0.3963414634146343 0 0 0 0
235 2 1 11 -0.36585365853658525 0 0 0 0
236 2 1 11 -0.33536585365853666 0 0 0 0
237 2 1 11 -0.3048780487804881 0 0 0 0
238 2 1 11 -0.27439024390243905 0 0 0 0
239 2 1 11 -0.24390243902439046 0 0 0 0
240 2 1 11 -0.21341463414634143 0 0 0 0
241 2 1 11 -0.18292682926829285 0 0 0 0
242 2 1 11 -0.15243902439024382 0 0 0 0
243 2 1 11 -0.12195121951219523 0 0 0 0
244 2 10 0 -0.09146341463414664 0 0 0 0
245 2 10 0 -0.060975609756097615 0 0 0 0
246 2 10 0 -0.03048780487804903 0 0 0 0
247 2 2 0 0.0 0 0 0 0
248 2 2 0 0.030487804878048586 0 0 0 0
249 2 2 0 0.060975609756097615 0 0 0 0
250 2 2 0 0.0914634146341462 0 0 0 0
251 2 2 0 0.12195121951219523 0 0 0 0
252 2 1 11 0.15243902439024382 0 0 0 0
253 2 1 11 0.1829268292682924 0 0 0 0
254 2 1 11 0.21341463414634143 0 0 0 0
255 2 1 11 0.24390243902439002 0 0 0 0
256 2 1 11 0.27439024390243905 0 0 0 0
257 2 1 11 0.30487804878048763 0 0 0 0
258 2 1 11 0.3353658536585362 0 0 0 0
259 2 1 11 0.3658536585365857 0 0 0 0
260 2 1 11 0.3963414634146343 0 0 0 0
261 2 1 11 0.42682926829268286 0 0 0 0
262 2 1 11 0.45731707317073145 0 0 0 0
263 2 1 11 0.48780487804878003 0 0 0 0
264 2 1 11 0.5182926829268295 0 0 0 0
265 2 1 11 0.5487804878048781 0 0 0 0
266 2 1 11 0.5792682926829267 0 0 0 0
267 2 1 11 0.6097560975609753 0 0 0 0
268 2 1 11 0.6402439024390247 0 0 0 0
269 2 1 11 0.6707317073170733 0 0 0 0
270 2 1 11 0.7012195121951219 0 0 0 0
271 2 1 11 0.7317073170731705 0 0 0 0
272 2 1 11 0.7621951219512191 0 0 0 0
273 2 1 11 0.7926829268292686 0 0 0 0
274 2 1 11 0.8231707317073171 0 0 0 0
275 2 1 11 0.8536585365853657 0 0 0 0
276 2 1 11 0.8841463414634143 0 0 0 0
277 2 1 11 0.9146341463414629 0 0 0 0
278 2 1 11 0.9451219512195124 0 0 0 0
279 2 1 11 0.975609756097561 0 0 0 0
280 2 1 11 1.0060975609756095 0 0 0 0
281 2 1 11 1.0365853658536581 0 0 0 0
282 2 1 11 1.0670731707317076 0 0 0 0
283 2 1 11 1.0975609756097562 0 0 0 0
284 2 1 11 1.1280487804878048 0 0 0 0
285 2 1 11 1.1585365853658534 0 0 0 0
286 2 1 11 1.189024390243902 0 0 0 0
287 2 1 11 1.2195121951219514 0 0 0 0
288 2 1 11 1.25 0 0 0 0
289 2 1 11 1.2804878048780486 0 0 0 0
290 2 1 11 1.3109756097560972 0 0 0 0
291 2 1 11 1.3414634146341466 0 0 0 0
292 2 1 11 1.3719512195121952 0 0 0 0
293 2 1 11 1.4024390243902438 0 0 0 0
294 2 1 11 1.4329268292682924 0 0 0 0
295 2 1 11 1.463414634146341 0 0 0 0
296 2 1 11 1.4939024390243905 0 0 0 0
297 2 1 11 1.524390243902439 0 0 0 0
298 2 1 11 1.5548780487804876 0 0 0 0
299 2 1 11 1.5853658536585362 0 0 0 0
300 2 1 11 1.6158536585365848 0 0 0 0
301 2 1 11 1.6463414634146343 0 0 0 0
302 2 1 11 1.6768292682926829 0 0 0 0
303 2 1 11 1.7073170731707314 0 0 0 0
304 2 1 11 1.73780487804878 0 0 0 0
305 2 1 11 1.7682926829268295 0 0 0 0
306 2 1 11 1.798780487804878 0 0 0 0
307 2 1 11 1.8292682926829267 0 0 0 0
308 2 1 11 1.8597560975609753 0 0 0 0
309 2 1 11 1.8902439024390238 0 0 0 0
310 2 1 11 1.9207317073170733 0 0 0 0
311 2 1 11 1.951219512195122 0 0 0 0
312 2 1 11 1.9817073170731705 0 0 0 0
313 2 1 11 2.012195121951219 0 0 0 0
314 2 1 11 2.0426829268292686 0 0 0 0
315 2 1 11 2.073170731707317 0 0 0 0
316 2 1 11 2.1036585365853657 0 0 0 0
317 2 1 11 2.1341463414634143 0 0 0 0
318 2 1 11 2.164634146341463 0 0 0 0
319 2 1 11 2.1951219512195124 0 0 0 0
320 2 1 11 2.225609756097561 0 0 0 0
321 2 1 11 2.2560975609756095 0 0 0 0
322 2 1 11 2.286585365853658 0 0 0 0
323 2 1 11 2.3170731707317076 0 0 0 0
324 2 1 11 2.347560975609756 0 0 0 0
325 2 1 11 2.3780487804878048 0 0 0 0
326 2 1 11 2.4085365853658534 0 0 0 0
327 2 1 11 2.439024390243902 0 0 0 0
328 2 1 11 2.4695121951219514 0 0 0 0
329 2 1 11 2.5 0 0 0 0
330 2 1 11 2.5304878048780486 0 0 0 0
331 2 1 11 2.560975609756097 0 0 0 0
332 2 1 11 2.5914634146341466 0 0 0 0
333 2 1 11 2.6219512195121952 0 0 0 0
334 2 1 11 2.652439024390244 0 0 0 0
335 2 1 11 2.6829268292682924 0 0 0 0
336 2 1 11 2.713414634146341 0 0 0 0
337 2 1 11 2.7439024390243905 0 0 0 0
338 2 1 11 2.774390243902439 0 0 0 0
339 2 1 11 2.8048780487804876 0 0 0 0
340 2 1 11 2.835365853658536 0 0 0 0
341 2 1 11 2.865853658536585 0 0 0 0
342 2 1 11 2.8963414634146343 0 0 0 0
343 2 1 11 2.926829268292683 0 0 0 0
344 2 1 11 2.9573170731707314 0 0 0 0
345 2 1 11 2.98780487804878 0 0 0 0
346 2 1 11 3.0182926829268295 0 0 0 0
347 2 1 11 3.048780487804878 0 0 0 0
348 2 1 11 3.0792682926829267 0 0 0 0
349 2 1 11 3.1097560975609753 0 0 0 0
350 2 1 11 3.140243902439024 0 0 0 0
351 2 1 11 3.1707317073170733 0 0 0 0
352 2 1 11 3.201219512195122 0 0 0 0
353 2 1 11 3.2317073170731705 0 0 0 0
354 2 1 11 3.262195121951219 0 0 0 0
355 2 1 11 3.2926829268292686 0 0 0 0
356 2 1 11 3.323170731707317 0 0 0 0
357 2 1 11 3.3536585365853657 0 0 0 0
358 2 1 11 3.3841463414634143 0 0 0 0
359 2 1 11 3.414634146341463 0 0 0 0
360 2 1 11 3.4451219512195124 0 0 0 0
361 2 1 11 3.475609756097561 0 0 0 0
362 2 1 11 3.5060975609756095 0 0 0 0
363 2 1 11 3.536585365853658 0 0 0 0
364 2 1 11 3.5670731707317067 0 0 0 0
365 2 1 11 3.597560975609756 0 0 0 0
366 2 1 11 3.6280487804878048 0 0 0 0
367 2 1 11 3.6585365853658534 0 0 0 0
368 2 1 11 3.689024390243902 0 0 0 0
369 2 1 11 3.7195121951219514 0 0 0 0
370 2 1 11 3.75 0 0 0 0
371 3 4 -1.09577 7.344534 0.520648 0 0 0
372 4 4 5.335895 -5.869166 2.657211 0 0 0
373 5 4 -2.456146 2.84794 -0.412102 0 0 0
374 6 4 -7.075279 -3.959325 -1.629128 0 0 0
375 7 4 -6.851176 7.164728 3.524788 0 0 0
376 8 4 5.134081 4.256194 0.55108 0 0 0
377 9 4 6.765205 4.443722 -2.960813 0 0 0
378 10 4 8.363356 -5.024269 4.061535 0 0 0
379 11 4 10.483728 1.214991 3.972756 0 0 0
380 12 4 4.460022 6.51913 -0.511693 0 0 0
381 13 4 9.168771 -3.140973 -3.490878 0 0 0
382 14 4 7.09222 -2.491019 -3.24362 0 0 0
383 15 4 9.218726 0.035808 -2.330831 0 0 0
384 16 4 0.926266 3.960158 -2.519317 0 0 0
385 17 4 -2.795548 -1.271852 0.322389 0 0 0
386 18 4 -5.242884 -0.997795 -1.699636 0 0 0
387 19 4 0.02485 2.026911 1.740532 0 0 0
388 20 4 -0.659749 1.042162 -4.16217 0 0 0
389 21 4 5.967585 5.646846 -1.074112 0 0 0
390 22 4 -3.076261 -5.92921 1.17139 0 0 0
391 23 4 10.177476 0.073294 -1.535348 0 0 0
392 24 4 -5.690472 -5.312011 2.029985 0 0 0
393 25 4 -5.328583 6.012229 2.454675 0 0 0
394 26 4 9.125503 -6.834233 0.471741 0 0 0
395 27 4 7.56248 -6.791427 -2.461274 0 0 0
396 28 4 -3.761413 -5.648093 1.379914 0 0 0
397 29 4 4.205357 -3.579266 -4.665283 0 0 0
398 30 4 -4.485765 -2.611918 1.855476 0 0 0
399 31 4 -1.390486 -4.558399 -3.60471 0 0 0
400 32 4 3.993516 -2.489408 1.054102 0 0 0
401 33 4 7.809282 5.751436 -3.534348 0 0 0
402 34 4 -10.213402 5.395518 -0.256196 0 0 0
403 35 4 5.378205 -3.626354 -1.341584 0 0 0
404 36 4 -6.396741 5.757813 -3.786186 0 0 0
405 37 4 1.693923 -0.449406 4.13223 0 0 0
406 38 4 3.982859 3.745909 1.690751 0 0 0
407 39 4 -1.642179 -0.559797 1.975947 0 0 0
408 40 4 -0.116996 -0.067586 4.966966 0 0 0
409 41 4 6.42013 3.898894 -2.516627 0 0 0
410 42 4 -0.141354 -1.672217 0.066431 0 0 0
411 43 4 -6.094477 3.170428 -3.8086 0 0 0
412 44 4 3.270996 -4.06999 3.925181 0 0 0
413 45 4 1.76726 -0.240328 -4.203607 0 0 0
414 46 4 -7.15105 -7.193864 0.953787 0 0 0
415 47 4 3.690686 6.897304 -0.729185 0 0 0
416 48 4 -6.204936 1.104667 -2.397946 0 0 0
417 49 4 5.693038 -0.993676 -1.689772 0 0 0
418 50 4 -3.192883 3.195126 3.818302 0 0 0
419 51 4 -9.744156 0.355895 -4.391568 0 0 0
420 52 4 -9.781242 5.081096 -0.405453 0 0 0
421 53 4 10.815413 -2.354853 -4.331168 0 0 0
422 54 4 -0.251671 6.456413 4.617977 0 0 0
423 55 4 -10.145141 6.864132 -0.953952 0 0 0
424 56 4 -1.294491 4.973003 -3.66705 0 0 0
425 57 4 -10.152765 3.352303 -4.114334 0 0 0
426 58 4 -5.914976 -3.82037 -1.756697 0 0 0
427 59 4 7.342381 0.178467 2.665646 0 0 0
428 60 4 4.458708 -7.395216 -0.82426 0 0 0
429 61 4 -4.071829 4.416063 1.955015 0 0 0
430 62 4 0.540507 -7.399219 -0.249475 0 0 0
431 63 4 -3.486423 6.906206 2.148802 0 0 0
432 64 4 -9.009394 -5.595408 2.964519 0 0 0
433 65 4 7.696421 -1.036114 -4.390957 0 0 0
434 66 4 5.652843 3.803988 1.32868 0 0 0
435 67 4 -5.631019 4.386108 -0.530862 0 0 0
436 68 4 8.94894 2.855666 -2.561762 0 0 0
437 69 4 3.38493 4.774271 1.132254 0 0 0
438 70 4 7.252856 -2.244966 -4.906495 0 0 0
439 71 4 -5.095194 6.601143 -4.616258 0 0 0
440 72 4 -0.210726 -0.577001 -1.108593 0 0 0
441 73 4 10.673569 -7.388485 1.420928 0 0 0
442 74 4 1.9241 -0.895979 0.264728 0 0 0
443 75 4 -6.120277 -0.829181 1.877444 0 0 0
444 76 4 6.069656 3.255028 -2.529859 0 0 0
445 77 4 -6.750282 0.288205 -4.355077 0 0 0
446 78 4 -1.188637 -6.915151 2.926129 0 0 0
447 79 4 -2.044554 -4.391097 -0.502038 0 0 0
448 80 4 3.422571 -4.225478 2.317476 0 0 0
449 81 4 -7.416675 3.410093 0.87576 0 0 0
450 82 4 6.843981 -1.684857 0.057709 0 0 0
451 83 4 -3.563673 0.974574 1.775828 0 0 0
452 84 4 -3.602357 -0.772271 -4.43515 0 0 0
453 85 4 -4.184926 -7.259541 3.559402 0 0 0
454 86 4 -9.067112 -5.906148 -2.803569 0 0 0
455 87 4 -1.748602 -2.304333 -4.086727 0 0 0
456 88 4 3.390347 5.140577 1.643606 0 0 0
457 89 4 9.385119 7.090005 3.959045 0 0 0
458 90 4 3.881823 -0.749801 2.258718 0 0 0
459 91 4 -5.150105 -3.24176 0.487889 0 0 0
460 92 4 5.480821 -0.955344 3.297598 0 0 0
461 93 4 5.538084 -4.029209 -1.678757 0 0 0
462 94 4 10.408976 -3.686511 1.809468 0 0 0
463 95 4 8.469839 -2.915943 -2.173325 0 0 0
464 96 4 -3.7407 -0.041878 -4.661833 0 0 0
465 97 4 -7.758566 0.152556 4.728077 0 0 0
466 98 4 -9.47154 -6.040899 -0.160539 0 0 0
467 99 4 3.610949 -6.065398 1.236282 0 0 0
468 100 4 8.466319 7.304134 2.702274 0 0 0
469 101 4 3.016662 -6.996107 -3.606712 0 0 0
470 102 4 3.748129 2.623537 2.308608 0 0 0
471 103 4 -5.105368 -0.151131 -0.899444 0 0 0
472 104 4 -1.483439 6.340928 -3.963379 0 0 0
473 105 4 3.384305 -6.123433 2.111681 0 0 0
474 106 4 -2.738672 -3.047257 1.150084 0 0 0
475 107 4 9.951225 -2.144199 2.665863 0 0 0
476 108 4 3.943777 -7.475289 0.78109 0 0 0
477 109 4 -6.935172 7.421233 4.691508 0 0 0
478 110 4 1.767139 0.768446 0.362821 0 0 0
479 111 4 -1.396178 3.970661 4.385537 0 0 0
480 112 4 -7.9699 7.257602 -1.716647 0 0 0
481 113 4 0.987569 7.252378 -3.440247 0 0 0
482 114 4 4.843621 2.792573 -4.919378 0 0 0
483 115 4 -1.652573 3.451725 2.149976 0 0 0
484 116 4 -7.298297 5.77889 3.976954 0 0 0
485 117 4 5.579452 -4.494234 4.414131 0 0 0
486 118 4 -6.781225 -2.583251 -0.371404 0 0 0
487 119 4 0.688832 -3.473834 4.484589 0 0 0
488 120 4 -9.648256 -4.441831 1.057864 0 0 0
489 121 4 7.30612 -4.575107 1.22992 0 0 0
490 122 4 -10.310852 2.54512 -4.995924 0 0 0
491 123 4 -4.092873 7.143872 4.52589 0 0 0
492 124 4 6.558874 3.976036 2.19656 0 0 0
493 125 4 -4.824302 0.87115 -1.497811 0 0 0
494 126 4 2.01536 -0.737145 -2.019219 0 0 0
495 127 4 -10.777062 5.154397 3.301922 0 0 0
496 128 4 8.637351 6.616787 1.044274 0 0 0
497 129 4 7.663548 5.374176 -4.199865 0 0 0
498 130 4 9.800298 -2.377163 1.621711 0 0 0
499 131 4 -9.470176 -5.582596 3.50646 0 0 0
500 132 4 3.396949 -3.15772 3.579058 0 0 0
501 133 4 4.183154 2.865629 -0.626438 0 0 0
502 134 4 9.011831 -5.756673 4.504833 0 0 0
503 135 4 -10.25113 2.223419 0.264875 0 0 0
504 136 4 6.378767 0.19999 -3.90699 0 0 0
505 137 4 -5.991853 1.576474 4.645275 0 0 0
506 138 4 -7.887019 -4.30011 -1.434212 0 0 0
507 139 4 5.649282 0.234735 -3.493965 0 0 0
508 140 4 2.119369 -4.916383 -3.904029 0 0 0
509 141 4 8.045249 3.683495 3.812242 0 0 0
510 142 4 -2.097704 -1.349278 3.141456 0 0 0
511 143 4 -6.469696 0.191547 3.984113 0 0 0
512 144 4 -1.695355 3.776317 -3.292725 0 0 0
513 145 4 -10.403367 0.652506 -0.720892 0 0 0
514 146 4 0.953718 -7.447315 2.552647 0 0 0
515 147 4 3.496826 3.807703 0.926776 0 0 0
516 148 4 -5.703188 -6.31111 -3.083621 0 0 0
517 149 4 -2.163338 -7.23273 4.94198 0 0 0
518 150 4 -1.903317 3.329649 -4.016326 0 0 0
519 151 4 -10.952473 -1.08679 -3.333904 0 0 0
520 152 4 -1.035233 -1.143717 -4.521099 0 0 0
521 153 4 -2.344524 -0.384719 -4.471774 0 0 0
522 154 4 7.862638 3.852277 -0.959066 0 0 0
523 155 4 8.012373 -0.12884 1.271787 0 0 0
524 156 4 -7.012014 5.15977 -2.633805 0 0 0
525 157 4 5.651336 1.616569 4.047192 0 0 0
526 158 4 -7.327439 6.258674 -1.38202 0 0 0
527 159 4 -5.88939 -4.882807 2.501651 0 0 0
528 160 4 -3.385695 -0.509173 -0.254723 0 0 0
529 161 4 -9.65716 3.766265 -1.695133 0 0 0
530 162 4 -9.351756 -4.060678 -2.708674 0 0 0
531 163 4 9.975632 -2.87806 3.248579 0 0 0
532 164 4 -10.436049 -4.144693 -0.645397 0 0 0
533 165 4 1.132862 -1.860721 2.818321 0 0 0
534 166 4 -6.002582 -3.220018 4.337615 0 0 0
535 167 4 9.599109 0.018762 -3.622963 0 0 0
536 168 4 4.502837 3.101469 -2.343727 0 0 0
537 169 4 6.900691 -0.453165 3.678574 0 0 0
538 170 4 2.654713 4.1202 1.069324 0 0 0
539 171 4 -4.884897 -1.899756 -1.466652 0 0 0
540 172 4 8.866805 -6.957627 4.279786 0 0 0
541 173 4 0.645906 3.118076 -1.585762 0 0 0
542 174 4 10.083566 4.586307 -1.55893 0 0 0
543 175 4 -10.12002 -0.984083 -1.68393 0 0 0
544 176 4 9.068971 1.490093 -1.000146 0 0 0
545 177 4 3.586303 -2.011102 -1.992883 0 0 0
546 178 4 -3.105069 -7.400335 -4.896096 0 0 0
547 179 4 -8.541891 -3.238189 -4.865424 0 0 0
548 180 4 8.998384 3.920924 -0.016383 0 0 0
549 181 4 0.115545 0.54196 -1.326621 0 0 0
550 182 4 -6.074877 -3.422109 -1.066388 0 0 0
551 183 4 4.393002 -3.711926 -2.602919 0 0 0
552 184 4 7.890557 2.635144 3.253348 0 0 0
553 185 4 -1.416136 -0.485025 -2.301773 0 0 0
554 186 4 6.007489 -5.279752 -3.139686 0 0 0
555 187 4 0.364221 -3.499408 -2.855171 0 0 0
556 188 4 -4.582458 7.232742 1.062765 0 0 0
557 189 4 -4.541247 -1.755501 -3.769578 0 0 0
558 190 4 2.805097 -0.98884 -3.275313 0 0 0
559 191 4 -8.613404 6.419393 -0.052626 0 0 0
560 192 4 3.895059 -4.758867 -0.27728 0 0 0
561 193 4 -8.522134 -6.878431 0.037379 0 0 0
562 194 4 -3.688837 -6.713446 -4.531929 0 0 0
563 195 4 -9.572092 2.528003 -2.294053 0 0 0
564 196 4 -2.570059 -5.070815 -3.683598 0 0 0
565 197 4 -3.134122 -4.319875 -0.323519 0 0 0
566 198 4 5.868614 6.569953 0.489026 0 0 0
567 199 4 -1.250477 0.422593 1.358801 0 0 0
568 200 4 -9.979172 -5.248993 -2.104846 0 0 0
569 201 4 8.005598 5.096429 -4.105819 0 0 0
570 202 4 9.371267 -7.012422 2.787882 0 0 0
571 203 4 -2.512676 4.972127 -2.83201 0 0 0
572 204 4 8.092116 -0.157526 -0.336972 0 0 0
573 205 4 4.079387 0.971898 -3.639132 0 0 0
574 206 4 -6.864406 4.464436 -1.907021 0 0 0
575 207 4 -7.795764 -4.836982 -4.281594 0 0 0
576 208 4 7.118739 2.741437 -4.458711 0 0 0
577 209 4 -3.691484 4.934626 -1.380954 0 0 0
578 210 4 7.670155 3.698472 -3.753527 0 0 0
579 211 4 -2.080174 -0.388978 -1.006627 0 0 0
580 212 4 6.157796 0.032798 1.974623 0 0 0
581 213 4 -8.5319 -1.738495 -1.204172 0 0 0
582 214 4 -8.002747 -0.942568 -4.223181 0 0 0
583 215 4 4.670589 4.975107 3.762093 0 0 0
584 216 4 8.083717 -3.613897 -3.317291 0 0 0
585 217 4 -3.299637 5.824171 -3.602676 0 0 0
586 218 4 4.703807 6.520881 4.159344 0 0 0
587 219 4 -9.361897 5.970188 -4.143501 0 0 0
588 220 4 6.017239 -3.598044 -1.11763 0 0 0
589 221 4 0.202338 -2.7817 -0.151381 0 0 0
590 222 4 -7.476884 0.875641 -3.237009 0 0 0
591 223 4 -1.942012 2.164596 -0.111787 0 0 0
592 224 4 -10.39573 1.990019 -4.209438 0 0 0
593 225 4 2.975537 6.024329 2.839532 0 0 0
594 226 4 2.353477 -3.12452 -4.837225 0 0 0
595 227 4 2.664198 -1.254666 3.510238 0 0 0
596 228 4 3.065208 2.351836 4.10322 0 0 0
597 229 4 -9.895355 3.681926 3.269013 0 0 0
598 230 4 -6.917768 4.054278 -0.490549 0 0 0
599 231 4 -5.427988 -2.32474 -2.470033 0 0 0
600 232 4 -4.213285 3.256202 -2.468936 0 0 0
601 233 4 -10.43118 -2.634039 0.785646 0 0 0
602 234 4 5.433087 -5.019165 -4.043172 0 0 0
603 235 4 -5.787147 3.698438 -1.175678 0 0 0
604 236 4 7.060739 5.844229 -4.124772 0 0 0
605 237 4 -8.542096 5.566935 -4.887358 0 0 0
606 238 4 -10.782675 -7.40434 -2.314091 0 0 0
607 239 4 -7.841185 -7.44922 -4.995667 0 0 0
608 240 4 -2.431956 -2.916445 4.524483 0 0 0
609 241 4 7.256215 5.669515 0.267094 0 0 0
610 242 4 -7.707262 -3.287724 -0.00359 0 0 0
611 243 4 -2.408083 5.447643 2.786579 0 0 0
612 244 4 -10.596679 -5.65737 1.491328 0 0 0
613 245 4 7.668165 1.019388 3.725448 0 0 0
614 246 4 -3.855512 2.367346 4.032579 0 0 0
615 247 4 -10.529335 2.55807 4.844431 0 0 0
616 248 4 -7.154946 -6.425614 -1.151571 0 0 0
617 249 4 5.948651 -5.763008 -1.934227 0 0 0
618 250 4 -9.094109 5.882837 -2.136424 0 0 0
619 251 4 -5.213615 -0.068993 -2.521916 0 0 0
620 252 4 -8.967864 1.125421 -3.891856 0 0 0
621 253 4 3.321299 6.413511 -0.648854 0 0 0
622 254 4 -0.105639 6.107646 -3.677381 0 0 0
623 255 4 0.231523 7.468267 -2.193012 0 0 0
624 256 4 -2.512197 -5.839855 0.839227 0 0 0
625 257 4 8.343978 -3.663658 3.895176 0 0 0
626 258 4 -4.505599 4.057805 -1.379596 0 0 0
627 259 4 9.361846 5.649539 -1.787022 0 0 0
628 260 4 7.945497 -5.254842 -4.901285 0 0 0
629 261 4 10.939752 -0.270912 -0.086496 0 0 0
630 262 4 -10.12572 -2.666275 4.118591 0 0 0
631 263 4 5.625301 -3.932004 2.574043 0 0 0
632 264 4 8.238879 5.459428 -2.529239 0 0 0
633 265 4 5.517946 -4.489138 2.678849 0 0 0
634 266 4 1.171793 3.297182 -4.810994 0 0 0
635 267 4 4.197063 -0.94937 -0.338529 0 0 0
636 268 4 1.778378 6.996667 4.983926 0 0 0
637 269 4 1.740338 1.913779 -0.578448 0 0 0
638 270 4 -5.529707 -5.130716 -2.156737 0 0 0
639 271 4 3.256643 -4.236557 4.685721 0 0 0
640 272 4 -9.655788 1.692259 -0.479954 0 0 0
641 273 4 5.508151 -1.508997 -4.242217 0 0 0
642 274 4 10.913282 1.704683 -4.367977 0 0 0
643 275 4 2.084362 0.239517 4.390069 0 0 0
644 276 4 7.21483 -2.884836 1.260972 0 0 0
645 277 4 6.164415 -6.592175 -3.983614 0 0 0
646 278 4 -7.602715 -7.450965 -0.850711 0 0 0
647 279 4 -3.064347 -0.280194 -0.010563 0 0 0
648 280 4 -6.777295 2.102178 3.181708 0 0 0
649 281 4 6.843117 -6.210876 0.677681 0 0 0
650 282 4 -7.931407 -0.734344 -4.638221 0 0 0
651 283 4 2.514954 -1.495993 -0.988227 0 0 0
652 284 4 -10.588555 -3.044325 -0.135917 0 0 0
653 285 4 3.381013 -0.188336 -0.38368 0 0 0
654 286 4 3.083194 6.707026 3.073416 0 0 0
655 287 4 -3.002831 0.7304 0.003109 0 0 0
656 288 4 10.018664 -6.837636 -2.271203 0 0 0
657 289 4 6.601297 -1.137481 2.563859 0 0 0
658 290 4 8.293489 -1.425367 2.049065 0 0 0
659 291 4 -4.599557 -6.912693 -1.1226 0 0 0
660 292 4 -4.64403 -0.162874 0.510343 0 0 0
661 293 4 -2.273411 -5.137259 -0.77061 0 0 0
662 294 4 0.234988 7.319247 0.42224 0 0 0
663 295 4 -0.8351 4.620962 0.292227 0 0 0
664 296 4 -0.482941 -0.622874 3.6016 0 0 0
665 297 4 -6.309972 -0.78638 4.570202 0 0 0
666 298 4 8.093282 6.600608 4.047563 0 0 0
667 299 4 3.014104 -5.77653 3.619959 0 0 0
668 300 4 -0.812585 -0.144595 -3.148347 0 0 0
669 301 4 -4.919126 -1.284473 -3.897369 0 0 0
670 302 4 -8.367537 6.866589 2.008898 0 0 0
671 303 4 3.877565 -2.18308 3.395923 0 0 0
672 304 4 3.416368 -1.206629 -1.779284 0 0 0
673 305 4 0.108997 4.535748 -1.327353 0 0 0
674 306 4 7.364727 4.155234 2.065781 0 0 0
675 307 4 -7.040096 -6.458721 -4.760776 0 0 0
676 308 4 1.465558 -7.315489 2.110913 0 0 0
677 309 4 8.469418 3.150927 2.813373 0 0 0
678 310 4 -0.459013 -1.398803 -4.651223 0 0 0
679 311 4 -10.980145 3.204444 4.486489 0 0 0
680 312 4 2.728427 -7.110769 -3.369006 0 0 0
681 313 4 -1.576431 -5.356638 -1.497261 0 0 0
682 314 4 -6.550309 5.58707 4.628534 0 0 0
683 315 4 6.374772 -3.962382 3.902245 0 0 0
684 316 4 5.6317 6.610402 1.680403 0 0 0
685 317 4 -0.340585 -2.953184 1.405821 0 0 0
686 318 4 8.22533 -4.515124 1.703045 0 0 0
687 319 4 0.859294 -2.438726 -2.126213 0 0 0
688 320 4 4.985574 -2.730828 3.694747 0 0 0
689 321 4 -1.047208 1.169283 3.323982 0 0 0
690 322 4 -0.206189 -1.634783 2.338478 0 0 0
691 323 4 -9.990609 -5.577546 3.615716 0 0 0
692 324 4 3.019224 1.64363 -1.231278 0 0 0
693 325 4 2.934352 5.444157 1.803291 0 0 0
694 326 4 -10.068168 1.689657 -0.508627 0 0 0
695 327 4 -9.602622 5.812608 -1.057862 0 0 0
696 328 4 8.252385 -0.061514 0.959604 0 0 0
697 329 4 1.997917 -6.387124 -2.694061 0 0 0
698 330 4 -7.768644 2.601566 -2.176597 0 0 0
699 331 4 1.697214 3.122461 -2.967471 0 0 0
700 332 4 2.563133 -7.110947 -0.032745 0 0 0
701 333 4 4.606315 -7.181063 0.270949 0 0 0
702 334 4 1.534892 -0.356862 4.63899 0 0 0
703 335 4 9.544854 -2.988502 0.823219 0 0 0
704 336 4 -3.575084 0.149152 4.012491 0 0 0
705 337 4 3.494862 7.385318 -1.255506 0 0 0
706 338 4 -7.474441 3.741593 4.346357 0 0 0
707 339 4 4.961437 -0.322526 1.503009 0 0 0
708 340 4 7.551334 3.893942 -1.510841 0 0 0
709 341 4 -5.072602 4.31213 -1.289732 0 0 0
710 342 4 1.524784 -2.627445 4.713944 0 0 0
711 343 4 -4.070211 -5.173003 4.597911 0 0 0
712 344 4 6.495187 4.427817 0.663599 0 0 0
713 345 4 3.352004 6.660957 -3.475647 0 0 0
714 346 4 4.908126 -3.119617 4.071924 0 0 0
715 347 4 7.442489 -7.042445 -0.566633 0 0 0
716 348 4 -8.499396 -5.807545 -4.918304 0 0 0
717 349 4 -10.240635 -5.247515 -2.380217 0 0 0
718 350 4 -1.047169 4.131973 3.786585 0 0 0
719 351 4 -5.139896 1.001827 4.546381 0 0 0
720 352 4 -8.535313 7.274688 -0.84884 0 0 0
721 353 4 -5.424577 5.563523 0.846291 0 0 0
722 354 4 -9.731508 1.646626 4.230022 0 0 0
723 355 4 -1.719909 2.214336 1.380825 0 0 0
724 356 4 -9.682095 7.042862 -2.873636 0 0 0
725 357 4 -4.516842 -1.586016 -4.625509 0 0 0
726 358 4 -9.428674 -1.614811 3.565431 0 0 0
727 359 4 0.976014 2.486704 3.096207 0 0 0
728 360 4 6.227991 -3.96786 4.344267 0 0 0
729 361 4 -3.149181 6.65796 1.369557 0 0 0
730 362 4 -4.518617 3.943416 -2.33474 0 0 0
731 363 4 10.235782 -5.727557 -0.613454 0 0 0
732 364 4 -1.576 2.882038 1.098574 0 0 0
733 365 4 2.890578 -0.772289 -2.482232 0 0 0
734 366 4 -5.904924 1.021899 -0.363463 0 0 0
735 367 4 -10.881133 -1.666925 4.090763 0 0 0
736 368 4 1.95115 -0.492822 -1.122479 0 0 0
737 369 4 7.604058 -1.300446 -1.371939 0 0 0
738 370 4 6.689103 -3.402957 -0.076739 0 0 0
739 371 4 3.799273 -4.478443 4.496133 0 0 0
740 372 4 -7.208513 7.426908 4.278713 0 0 0
741 373 4 0.694006 -0.261695 1.304254 0 0 0
742 374 4 -5.220308 -0.562932 1.421673 0 0 0
743 375 4 -3.838726 -2.781829 1.977306 0 0 0
744 376 4 0.131705 4.152268 0.330632 0 0 0
745 377 4 -1.248587 4.821159 1.542494 0 0 0
746 378 4 9.593319 0.774174 -1.260595 0 0 0
747 379 4 -7.775077 3.477817 2.242441 0 0 0
748 380 4 6.438647 5.766199 3.518293 0 0 0
749 381 4 8.639893 -4.998852 -0.894787 0 0 0
750 382 4 2.275941 5.738325 1.737712 0 0 0
751 383 4 -8.420903 -4.202601 0.366397 0 0 0
752 384 4 8.206311 6.176851 -0.917846 0 0 0
753 385 4 7.275234 -5.806253 -2.776152 0 0 0
754 386 4 2.450474 -6.131957 -2.409594 0 0 0
755 387 4 -2.354046 -7.348663 1.569709 0 0 0
756 388 4 0.228794 3.179854 -1.645935 0 0 0
757 389 4 7.37666 2.491517 4.761176 0 0 0
758 390 4 -6.654912 -3.91378 4.822557 0 0 0
759 391 4 2.741854 0.5279 3.720401 0 0 0
760 392 4 -8.898479 1.879499 4.222453 0 0 0
761 393 4 10.991029 -2.754686 1.834699 0 0 0
762 394 4 -7.765648 -3.915014 2.322805 0 0 0
763 395 4 -2.444199 -1.302287 -4.71283 0 0 0
764 396 4 5.648936 -6.775947 1.947723 0 0 0
765 397 4 5.953245 -6.445932 4.432754 0 0 0
766 398 4 -9.440067 -1.766854 -3.738446 0 0 0
767 399 4 -4.754877 1.387424 -4.79121 0 0 0
768 400 4 2.649519 -4.450641 -0.631477 0 0 0
769 401 4 2.206632 3.546328 0.515438 0 0 0
770 402 4 -4.265763 -4.32224 -0.442885 0 0 0
771 403 4 4.611488 -7.330151 3.148935 0 0 0
772 404 4 9.987163 -7.486347 -2.295531 0 0 0
773 405 4 -7.198803 -3.667544 -4.05564 0 0 0
774 406 4 -2.455689 1.560497 1.199789 0 0 0
775 407 4 3.377996 -4.644434 -3.686399 0 0 0
776 408 4 -4.638049 1.323668 4.499689 0 0 0
777 409 4 -7.355592 -5.205432 -4.373818 0 0 0
778 410 4 0.179251 -2.008894 -0.247066 0 0 0
779 411 4 -7.915602 -2.915156 -4.058714 0 0 0
780 412 4 -10.171093 -0.982113 -1.304685 0 0 0
781 413 4 -1.416172 -1.524616 -2.661944 0 0 0
782 414 4 -1.624356 -2.846342 -4.061732 0 0 0
783 415 4 6.48133 -3.052097 -0.232615 0 0 0
784 416 4 0.110285 6.616801 -3.642595 0 0 0
785 417 4 5.653935 -2.007019 -2.541775 0 0 0
786 418 4 -2.396556 -6.519848 -0.469836 0 0 0
787 419 4 10.209397 -3.402357 -4.823782 0 0 0
788 420 4 6.101704 -0.112853 4.58588 0 0 0
789 421 4 7.962533 -1.330586 -3.555908 0 0 0
790 422 4 2.775764 -2.731345 -2.546343 0 0 0
791 423 4 8.213015 3.449135 2.831345 0 0 0
792 424 4 4.474835 -4.333989 -0.806248 0 0 0
793 425 4 6.283746 -1.609692 2.219525 0 0 0
794 426 4 -7.440094 -0.087765 3.866483 0 0 0
795 427 4 2.71319 6.036288 2.122851 0 0 0
796 428 4 -10.474723 3.977481 -1.088319 0 0 0
797 429 4 -3.5087 5.629685 4.616108 0 0 0
798 430 4 -10.271222 4.007201 4.638253 0 0 0
799 431 4 -3.166874 -5.284907 3.520281 0 0 0
800 432 4 10.939098 3.330108 -0.066489 0 0 0
801 433 4 -1.003892 5.513913 0.458888 0 0 0
802 434 4 2.992239 7.27618 4.958986 0 0 0
803 435 4 6.980019 -2.776366 0.90625 0 0 0
804 436 4 1.486372 -6.350587 -3.155204 0 0 0
805 437 4 -8.862097 -5.735303 4.420506 0 0 0
806 438 4 9.609254 2.263409 -2.998511 0 0 0
807 439 4 3.055399 -3.948844 -1.506663 0 0 0
808 440 4 -6.425998 -2.088929 0.094462 0 0 0
809 441 4 7.464574 4.991544 2.318744 0 0 0
810 442 4 2.651741 -4.585722 0.837837 0 0 0
811 443 4 -10.108346 2.167833 -3.84205 0 0 0
812 444 4 6.841278 -1.013923 -3.450994 0 0 0
813 445 4 1.03593 -3.363223 -0.446959 0 0 0
814 446 4 -0.183641 7.283362 1.158115 0 0 0
815 447 4 -3.27382 5.872369 1.345687 0 0 0
816 448 4 0.361161 3.380269 4.301723 0 0 0
817 449 4 8.928872 -5.098697 0.19473 0 0 0
818 450 4 8.926777 -1.395565 -2.18297 0 0 0
819 451 4 -0.668582 5.028188 2.052695 0 0 0
820 452 4 -5.234943 -3.844469 0.722442 0 0 0
821 453 4 -0.594037 5.435254 -2.447917 0 0 0
822 454 4 -3.824697 -1.831187 2.760948 0 0 0
823 455 4 -8.303459 1.943732 -2.958744 0 0 0
824 456 4 -7.902887 4.498257 3.775354 0 0 0
825 457 4 10.786836 3.01157 0.300147 0 0 0
826 458 4 0.935124 5.04048 -4.37082 0 0 0
827 459 4 -4.925967 -2.4647 1.925461 0 0 0
828 460 4 -3.347912 -0.772296 0.426368 0 0 0
829 461 4 -5.303279 1.704937 4.925682 0 0 0
830 462 4 -0.153851 2.605282 -1.288307 0 0 0
831 463 4 7.653903 6.61963 -4.426435 0 0 0
832 464 4 10.769771 3.936797 -0.29458 0 0 0
833 465 4 -9.933206 3.515185 -1.949152 0 0 0
834 466 4 3.321146 6.616165 -4.886079 0 0 0
835 467 4 -1.296846 2.651293 3.622394 0 0 0
836 468 4 -3.575117 3.202969 -1.786904 0 0 0
837 469 4 6.529701 6.430696 4.405016 0 0 0
838 470 4 2.970672 1.731916 0.700658 0 0 0
839 471 4 5.163112 0.586512 -0.657699 0 0 0
840 472 4 -5.537575 3.462928 4.901122 0 0 0
841 473 4 -9.937951 0.143316 -3.694833 0 0 0
842 474 4 -6.366914 -6.843717 -4.978928 0 0 0
843 475 4 3.079792 1.980093 0.885444 0 0 0
844 476 4 4.154056 3.844539 4.098895 0 0 0
845 477 4 7.255571 -0.471127 -2.015176 0 0 0
846 478 4 1.720943 3.774606 -4.421876 0 0 0
847 479 4 -6.567303 4.162963 3.29366 0 0 0
848 480 4 6.917939 -5.411918 -1.465659 0 0 0
849 481 4 -8.721031 2.72549 -0.067939 0 0 0
850 482 4 9.522881 0.753399 1.809561 0 0 0
851 483 4 -6.727399 5.376346 -2.301418 0 0 0
852 484 4 9.371665 6.413563 -4.977221 0 0 0
853 485 4 -5.644329 4.361672 -3.751744 0 0 0
854 486 4 -4.21234 7.402915 -4.54654 0 0 0
855 487 4 -7.151994 4.991925 4.043777 0 0 0
856 488 4 -4.919946 -5.904488 -4.641444 0 0 0
857 489 4 -3.402382 -5.80439 3.147631 0 0 0
858 490 4 0.150959 0.188949 -1.497454 0 0 0
859 491 4 -3.866767 -1.935901 -0.570095 0 0 0
860 492 4 -7.038558 -7.388481 -4.849229 0 0 0
861 493 4 -4.743193 5.064354 -4.512394 0 0 0
862 494 4 7.425111 -6.063987 0.346552 0 0 0
863 495 4 -3.671306 5.419623 0.755661 0 0 0
864 496 4 10.709345 -3.238242 2.82857 0 0 0
865 497 4 -5.718603 -2.607559 1.642268 0 0 0
866 498 4 6.075759 6.446465 -0.654303 0 0 0
867 499 4 10.4703 -3.642192 3.157818 0 0 0
868 500 4 -1.075629 -4.754892 -4.322828 0 0 0
869 501 4 5.766845 -1.176706 -0.75505 0 0 0
870 502 4 9.555222 6.678115 -3.372087 0 0 0
871 503 4 -2.340199 -3.946337 -4.182727 0 0 0
872 504 4 -0.255151 4.530764 2.611941 0 0 0
873 505 4 -10.4496 4.357989 -0.614603 0 0 0
874 506 4 -2.398778 -1.048629 0.724556 0 0 0
875 507 4 -6.073092 0.110594 -0.684062 0 0 0
876 508 4 -7.162076 4.93894 4.54854 0 0 0
877 509 4 9.10198 -0.200128 1.535702 0 0 0
878 510 4 -2.807982 -6.62642 -2.802885 0 0 0
879 511 4 -0.371906 3.763625 -1.522996 0 0 0
880 512 4 3.53401 5.174767 0.451246 0 0 0
881 513 4 0.376401 -3.559209 4.133435 0 0 0
882 514 4 -7.169649 5.213435 -3.052866 0 0 0
883 515 4 7.115956 5.857755 -0.301976 0 0 0
884 516 4 6.454691 3.118521 0.146976 0 0 0
885 517 4 -5.976055 -2.407028 3.526112 0 0 0
886 518 4 -10.329951 -4.73831 -4.14106 0 0 0
887 519 4 3.04045 5.738227 2.676794 0 0 0
888 520 4 -7.015429 6.412297 -1.809897 0 0 0
889 521 4 0.770813 -0.52501 4.011545 0 0 0
890 522 4 2.192121 -2.940247 -0.600752 0 0 0
891 523 4 -9.345286 1.898907 -4.224477 0 0 0
892 524 4 4.186871 0.107721 -4.361355 0 0 0
893 525 4 -0.81314 5.083442 -3.665875 0 0 0
894 526 4 -8.755577 -5.51817 3.310862 0 0 0
895 527 4 5.840038 -7.227556 2.03789 0 0 0
896 528 4 -6.201629 -6.692648 2.019922 0 0 0
897 529 4 6.780757 0.712027 2.255254 0 0 0
898 530 4 -8.445166 -4.730463 2.146524 0 0 0
899 531 4 -1.300494 1.601845 -3.147904 0 0 0
900 532 4 -6.448409 3.656799 2.948013 0 0 0
901 533 4 -1.22294 -5.471421 -4.279034 0 0 0
902 534 4 -6.518881 -6.530052 -2.76382 0 0 0
903 535 4 7.355806 5.297056 -2.729912 0 0 0
904 536 4 -10.17737 -0.431398 -4.726 0 0 0
905 537 4 2.416149 4.55925 3.362077 0 0 0
906 538 4 7.399073 -7.016341 4.074962 0 0 0
907 539 4 6.015748 -4.108957 1.392207 0 0 0
908 540 4 -8.179086 -2.44177 3.48621 0 0 0
909 541 4 -3.455551 -7.026514 1.790337 0 0 0
910 542 4 -4.6138 3.670908 1.555285 0 0 0
911 543 4 0.204665 3.819116 4.493242 0 0 0
912 544 4 2.39191 -2.521353 -4.766811 0 0 0
913 545 4 -9.311908 3.751263 -0.929775 0 0 0
914 546 4 -7.701651 -6.205293 -4.259082 0 0 0
915 547 4 4.983685 -2.466162 1.923878 0 0 0
916 548 4 1.472232 -7.270673 -0.764085 0 0 0
917 549 4 -7.37773 -6.813593 0.909958 0 0 0
918 550 4 -6.167222 1.310285 2.621762 0 0 0
919 551 4 6.5124 -6.344651 -2.906834 0 0 0
920 552 4 -10.357821 -5.6822 4.248717 0 0 0
921 553 8 -7.122106 -1.682729 4.986973 0 0 0
922 554 8 -0.373358 4.254127 -4.536046 0 0 0
923 555 8 -0.71497 3.200786 -0.720694 0 0 0
924 556 8 -1.703081 5.964093 -0.018077 0 0 0
925 557 8 -6.189562 -0.451979 -3.179118 0 0 0
926 558 8 -10.324474 -5.111691 -2.532219 0 0 0
927 559 8 -0.053621 -2.900964 2.838411 0 0 0
928 560 8 -9.401089 0.434638 -2.681711 0 0 0
929 561 8 -0.999991 -2.222556 -4.129603 0 0 0
930 562 8 -4.655718 -0.071434 -0.791245 0 0 0
931 563 8 -5.533675 3.561461 -3.37851 0 0 0
932 564 8 -9.264654 -4.083114 1.960793 0 0 0
933 565 8 -3.629433 6.168441 1.368385 0 0 0
934 566 8 -1.899748 -3.86478 -0.09414 0 0 0
935 567 8 -0.580294 0.569033 3.896807 0 0 0
936 568 8 -5.974172 -1.83798 2.853152 0 0 0
937 569 8 -0.218747 1.190213 4.369337 0 0 0
938 570 8 -8.962254 3.390876 4.248798 0 0 0
939 571 8 -1.911334 6.192894 -1.21177 0 0 0
940 572 8 -10.244178 5.238966 0.292638 0 0 0
941 573 8 -8.228425 2.579388 3.514298 0 0 0
942 574 8 -5.184342 -5.318762 0.471697 0 0 0
943 575 8 -6.556913 -4.482103 1.130055 0 0 0
944 576 8 -7.624575 -2.842541 1.49376 0 0 0
945 577 8 -10.070687 -3.377074 -3.800413 0 0 0
946 578 8 -4.230714 0.168994 -1.246773 0 0 0
947 579 8 -5.765079 -5.237853 2.835658 0 0 0
948 580 8 -2.552888 -1.559515 -4.275459 0 0 0
949 581 8 -0.816785 6.639556 -2.133429 0 0 0
950 582 8 -1.032485 2.173916 -2.826136 0 0 0
951 583 8 -3.166313 2.90664 -4.337029 0 0 0
952 584 8 -4.196895 -1.422021 -1.529698 0 0 0
953 585 8 -1.932221 6.444056 2.482263 0 0 0
954 586 8 -0.494517 0.061522 -0.25581 0 0 0
955 587 8 -7.253692 -3.818049 -0.96969 0 0 0
956 588 8 -5.826019 0.021078 4.538665 0 0 0
957 589 8 -0.697888 4.293835 -3.838583 0 0 0
958 590 8 -3.896174 -4.947288 2.327118 0 0 0
959 591 8 -0.433119 -6.837527 1.736756 0 0 0
960 592 8 -2.105925 -4.853439 -3.660602 0 0 0
961 593 8 -1.595975 -5.752825 1.635634 0 0 0
962 594 8 -10.689971 0.35534 -2.47747 0 0 0
963 595 8 -7.165397 -4.034096 -2.24918 0 0 0
964 596 8 -9.579804 -6.739794 2.84149 0 0 0
965 597 8 -5.058821 0.295479 -4.470181 0 0 0
966 598 8 -6.308753 -0.169514 -3.660888 0 0 0
967 599 8 -6.171219 -2.565787 0.766429 0 0 0
968 600 8 -1.692603 -4.538916 3.575212 0 0 0
969 601 8 -4.840485 -0.11571 0.328395 0 0 0
970 602 8 -0.455433 3.552803 -4.512182 0 0 0
971 603 8 -0.717983 -0.398307 -3.013215 0 0 0
972 604 8 -7.721107 -3.347084 -4.347879 0 0 0
973 605 8 -3.883351 6.582531 2.784694 0 0 0
974 606 8 -0.119088 3.504697 -2.944358 0 0 0
975 607 8 -9.820197 0.300237 -2.92505 0 0 0
976 608 8 -6.868872 -4.991508 -0.895512 0 0 0
977 609 8 -8.369174 5.26626 -0.03644 0 0 0
978 610 8 -5.510713 -0.646438 -0.95621 0 0 0
979 611 8 -8.479186 6.36891 -3.057946 0 0 0
980 612 8 -3.911586 1.964099 -0.459692 0 0 0
981 613 8 -8.932672 -4.97853 1.271407 0 0 0
982 614 8 -6.433347 -6.369685 1.911881 0 0 0
983 615 8 -6.553459 -2.12946 3.047478 0 0 0
984 616 8 -6.795992 2.259895 -2.537159 0 0 0
985 617 8 -2.174031 -2.42129 -3.649325 0 0 0
986 618 8 -5.031181 -5.149465 -3.76284 0 0 0
987 619 8 -10.723578 6.043111 2.808421 0 0 0
988 620 8 -6.334363 -0.469484 -3.008957 0 0 0
989 621 8 -5.163527 4.913678 -3.536951 0 0 0
990 622 8 -4.94002 -6.003243 4.813995 0 0 0
991 623 8 -8.3751 -1.132944 4.025844 0 0 0
992 624 8 -1.658817 1.753392 2.419236 0 0 0
993 625 8 -1.667242 1.560149 0.401111 0 0 0
994 626 8 -7.012489 1.025398 -4.770047 0 0 0
995 627 8 -5.16846 -3.598849 -2.965974 0 0 0
996 628 8 -3.652385 2.49594 -3.917478 0 0 0
997 629 8 -7.062205 6.855693 -0.208876 0 0 0
998 630 8 -5.48154 -2.612788 4.15862 0 0 0
999 631 8 -0.997321 2.696529 -0.982449 0 0 0
1000 632 8 -2.09764 3.433499 1.208525 0 0 0
1001 633 8 -7.910817 2.225263 -4.408021 0 0 0
1002 634 8 -3.669269 6.2737 3.697322 0 0 0
1003 635 8 -7.598369 -0.032869 -2.758715 0 0 0
1004 636 8 -7.613114 6.431574 4.912036 0 0 0
1005 637 8 -9.60585 4.571801 3.124198 0 0 0
1006 638 8 -5.037965 4.34567 -1.106665 0 0 0
1007 639 8 -6.713808 4.484895 -1.579908 0 0 0
1008 640 8 -9.373017 5.251076 -3.099326 0 0 0
1009 641 8 -5.79817 1.999574 3.686731 0 0 0
1010 642 8 -10.619616 -3.532154 -3.422183 0 0 0
1011 643 8 -3.355871 3.493596 2.558207 0 0 0
1012 644 8 -0.27007 6.319124 -3.200879 0 0 0
1013 645 8 -9.200145 2.615315 1.974589 0 0 0
1014 646 8 -7.332737 -5.622609 -4.322761 0 0 0
1015 647 8 -2.178872 0.275596 3.056123 0 0 0
1016 648 8 -10.552256 1.90293 -2.798955 0 0 0
1017 649 8 -0.841364 -0.867366 -0.223613 0 0 0
1018 650 8 -8.476411 -0.245115 -4.813832 0 0 0
1019 651 8 -8.404467 -3.072582 -1.030867 0 0 0
1020 652 8 -5.574888 -0.520012 3.922529 0 0 0
1021 653 8 -8.110492 -1.953111 -4.105395 0 0 0
1022 654 8 -6.91655 -1.539617 3.282228 0 0 0
1023 655 8 -6.957654 2.84783 -0.873167 0 0 0
1024 656 8 -4.965774 6.097087 -2.591272 0 0 0
1025 657 8 -7.937622 2.66159 0.385397 0 0 0
1026 658 8 -9.16478 -0.798338 2.624699 0 0 0
1027 659 8 -3.71544 5.191327 -0.04442 0 0 0
1028 660 8 -1.347944 -5.808717 -3.889496 0 0 0
1029 661 8 -6.170336 4.891976 -0.691677 0 0 0
1030 662 8 -7.716634 6.804996 -4.523442 0 0 0
1031 663 8 -0.625599 2.388848 0.708707 0 0 0
1032 664 8 -0.719677 5.076154 -3.6464 0 0 0
1033 665 8 -0.85633 -2.000842 -4.855101 0 0 0
1034 666 8 -0.023315 -7.292571 -1.406549 0 0 0
1035 667 8 -0.351475 -2.107313 0.315893 0 0 0
1036 668 8 -2.841522 4.676989 2.888288 0 0 0
1037 669 8 -9.732558 4.825447 1.281638 0 0 0
1038 670 8 -7.562992 7.422454 2.831519 0 0 0
1039 671 8 -7.048234 0.621131 0.795467 0 0 0
1040 672 8 -3.983748 -6.927041 2.742049 0 0 0
1041 673 8 -1.172538 -1.934853 -4.459363 0 0 0
1042 674 8 -10.065865 -3.463739 2.481246 0 0 0
1043 675 8 -10.209091 5.910628 -4.104769 0 0 0
1044 676 8 -2.786693 -1.169035 -1.896825 0 0 0
1045 677 8 -3.29222 3.463965 4.170626 0 0 0
1046 678 8 -2.760396 -5.353831 -4.919921 0 0 0
1047 679 8 -7.18318 -4.325125 2.425785 0 0 0
1048 680 8 -1.837614 2.185814 3.879969 0 0 0
1049 681 8 -8.595316 0.123588 -1.050914 0 0 0
1050 682 8 -10.085501 -5.074002 -2.218037 0 0 0
1051 683 8 -3.437323 -3.270638 4.495825 0 0 0
1052 684 8 -3.30895 5.57629 2.904961 0 0 0
1053 685 8 -8.930591 2.635478 -2.181802 0 0 0
1054 686 8 -1.317098 0.098515 1.513993 0 0 0
1055 687 8 -6.248258 -0.239873 -3.929081 0 0 0
1056 688 8 -8.004144 -5.163995 -0.621003 0 0 0
1057 689 8 -10.010735 1.264033 -4.700296 0 0 0
1058 690 8 -4.989881 -2.626908 2.165166 0 0 0
1059 691 8 -7.498499 -7.487408 -2.765891 0 0 0
1060 692 8 -4.774861 4.255669 -0.294694 0 0 0
1061 693 8 -10.793686 -3.547965 -0.416874 0 0 0
1062 694 8 -7.41936 5.140538 0.687003 0 0 0
1063 695 8 -9.94866 4.159149 -0.171166 0 0 0
1064 696 8 -10.152088 -6.276889 -1.036888 0 0 0
1065 697 8 -5.724691 2.252969 2.393867 0 0 0
1066 698 8 -3.093016 4.974226 -3.272209 0 0 0
1067 699 8 -6.228304 -2.638835 -3.123803 0 0 0
1068 700 8 -3.783158 -4.571259 -0.840888 0 0 0
1069 701 8 -8.351456 3.554506 -0.111017 0 0 0
1070 702 8 -6.903706 4.08049 3.063573 0 0 0
1071 703 8 -9.189269 6.736739 -2.136659 0 0 0
1072 704 8 -5.215188 6.710958 2.917976 0 0 0
1073 705 8 -7.03311 -0.516598 2.710897 0 0 0
1074 706 8 -1.097973 4.025811 1.780113 0 0 0
1075 707 8 -6.390776 -2.885597 1.565445 0 0 0
1076 708 8 -3.325662 0.556546 3.180275 0 0 0
1077 709 8 -9.601064 1.305726 -3.671951 0 0 0
1078 710 8 -5.659277 1.62247 -2.096156 0 0 0
1079 711 8 -1.032995 3.954063 0.744737 0 0 0
1080 712 8 -4.402284 2.765289 -4.904639 0 0 0
1081 713 8 -1.242732 -1.337631 4.978852 0 0 0
1082 714 8 -10.065305 1.419731 -0.638517 0 0 0
1083 715 8 -8.631393 0.415814 -1.544842 0 0 0
1084 716 8 -10.139901 3.885873 -4.916194 0 0 0
1085 717 8 -7.944129 0.657248 -3.761921 0 0 0
1086 718 8 -8.084224 -4.095109 3.217583 0 0 0
1087 719 8 -10.394064 1.163319 -4.037886 0 0 0
1088 720 8 -3.12945 -5.987852 3.802202 0 0 0
1089 721 8 -4.584223 3.555861 -4.90518 0 0 0
1090 722 8 -10.911783 5.955876 -1.646277 0 0 0
1091 723 8 -1.234314 -4.555884 -1.322374 0 0 0
1092 724 8 -2.341963 1.719004 1.911199 0 0 0
1093 725 8 -2.692432 3.643742 -4.950471 0 0 0
1094 726 8 -6.118504 1.106391 1.984804 0 0 0
1095 727 8 -2.342725 2.816236 -3.981147 0 0 0
1096 728 8 -1.353796 -3.732276 -3.425575 0 0 0
1097 729 8 -1.372393 -1.414228 4.88382 0 0 0
1098 730 8 -3.863663 0.748922 0.0733 0 0 0
1099 731 8 -1.387798 1.010208 2.658165 0 0 0
1100 732 8 -2.445292 -4.056173 4.402317 0 0 0
1101 733 8 -7.034836 3.849844 4.803199 0 0 0
1102 734 8 -3.774183 -6.610315 0.549001 0 0 0
1103 735 8 -9.845522 -1.811173 -4.422124 0 0 0
1104 736 8 -0.664058 4.872615 -0.629982 0 0 0
1105 737 8 -6.229405 4.244488 4.879948 0 0 0
1106 738 8 -4.993362 -3.908068 2.361175 0 0 0
1107 739 8 -6.796858 4.713762 -3.149624 0 0 0
1108 740 8 -1.474504 -6.630088 -2.185066 0 0 0
1109 741 8 -6.152117 3.94589 2.471046 0 0 0
1110 742 8 -10.740138 0.62536 -1.801896 0 0 0
1111 743 8 -2.319097 4.735485 -1.535051 0 0 0
1112 744 8 -4.436341 -7.161903 -2.416155 0 0 0
1113 745 8 -7.717899 -0.296092 4.837602 0 0 0
1114 746 8 -6.501814 5.103278 0.468108 0 0 0
1115 747 8 -7.28478 6.939088 -1.49338 0 0 0
1116 748 8 -2.932107 5.237011 4.543981 0 0 0
1117 749 8 -5.69466 -1.465521 -0.037987 0 0 0
1118 750 8 -9.976521 -5.227237 4.788795 0 0 0
1119 751 8 -7.787141 0.971944 3.106688 0 0 0
1120 752 8 -0.030583 -2.962314 2.234222 0 0 0
1121 753 8 -10.59228 -0.59984 4.271941 0 0 0
1122 754 8 -4.207644 1.39911 1.182042 0 0 0
1123 755 8 -3.410458 -2.920071 0.376622 0 0 0
1124 756 8 -0.171939 -6.537506 -3.2586 0 0 0
1125 757 8 -5.558675 -5.066209 -4.918956 0 0 0
1126 758 8 -9.837341 5.066592 1.975087 0 0 0
1127 759 8 -7.169824 -2.780845 -4.157147 0 0 0
1128 760 8 -9.011041 -0.631923 0.200264 0 0 0
1129 761 8 -10.817947 3.105709 3.562932 0 0 0
1130 762 8 -5.592527 -0.369627 0.307537 0 0 0
1131 763 8 -5.444592 3.210853 4.574541 0 0 0
1132 764 8 -4.941888 2.452852 2.897239 0 0 0
1133 765 8 -1.450367 -5.131034 1.323719 0 0 0
1134 766 8 -9.011565 -2.114187 1.669543 0 0 0
1135 767 8 -4.793553 0.803758 4.962043 0 0 0
1136 768 8 -0.176747 5.407121 -2.42685 0 0 0
1137 769 8 -1.742297 -2.994467 -1.665833 0 0 0
1138 770 8 -6.957657 5.51263 4.060446 0 0 0
1139 771 8 -0.681947 -5.582751 0.099671 0 0 0
1140 772 8 -2.198324 0.519805 -4.158272 0 0 0
1141 773 8 -2.879828 6.324713 4.90827 0 0 0
1142 774 8 -7.120773 -4.143162 3.118078 0 0 0
1143 775 8 -9.930545 -3.753866 -3.006487 0 0 0
1144 776 8 -2.961385 7.07459 -2.785012 0 0 0
1145 777 8 -4.631715 -5.235648 -3.978114 0 0 0
1146 778 8 -7.705987 2.765364 0.643589 0 0 0
1147 779 8 -8.204909 6.317194 3.66586 0 0 0
1148 780 8 -9.116396 6.058221 2.880327 0 0 0
1149 781 8 -8.532648 0.968036 3.953134 0 0 0
1150 782 8 -9.632845 1.757568 -3.36095 0 0 0
1151 783 8 -1.320656 6.031257 -2.969753 0 0 0
1152 784 8 -6.749016 -0.500507 -4.522633 0 0 0
1153 785 8 -5.970617 3.538021 -1.079694 0 0 0
1154 786 8 -1.809274 -3.562151 2.478103 0 0 0
1155 787 8 -6.138088 1.112833 1.84249 0 0 0
1156 788 8 -0.523194 -6.721467 -2.100327 0 0 0
1157 789 8 -8.023539 -2.953261 1.231799 0 0 0
1158 790 8 -0.777238 3.174524 0.045086 0 0 0
1159 791 8 -9.944074 -0.038333 3.534865 0 0 0
1160 792 8 -4.293696 6.731562 3.900931 0 0 0
1161 793 8 -4.445644 6.590109 -0.069763 0 0 0
1162 794 8 -0.142131 0.628259 -2.844709 0 0 0
1163 795 8 -7.555988 -2.192905 -2.146564 0 0 0
1164 796 8 -0.331609 5.212316 3.180141 0 0 0
1165 797 8 -1.742288 5.765039 2.827719 0 0 0
1166 798 8 -0.31119 3.476871 3.836709 0 0 0
1167 799 8 -9.231936 -3.240416 0.422645 0 0 0
1168 800 8 -0.927767 4.233484 2.504031 0 0 0
1169 801 8 -6.85073 -7.20249 -4.8307 0 0 0
1170 802 8 -3.877829 -4.312966 -4.415066 0 0 0
1171 803 8 -9.276333 -2.648252 -2.697223 0 0 0
1172 804 8 -10.294126 -7.362031 2.239931 0 0 0
1173 805 8 -2.822693 -6.085635 -0.011253 0 0 0
1174 806 8 -5.792312 -4.272535 -4.356693 0 0 0
1175 807 8 -8.053374 -3.380175 -0.549258 0 0 0
1176 808 8 -7.186637 -1.787431 -3.692909 0 0 0
1177 809 8 -4.98678 3.277502 1.659545 0 0 0
1178 810 8 -1.819099 -5.165089 2.758296 0 0 0
1179 811 8 -5.528681 3.196891 -3.926651 0 0 0
1180 812 8 -0.844805 6.878142 3.686338 0 0 0
1181 813 8 -7.739552 5.524979 -0.627308 0 0 0
1182 814 8 -6.259467 1.431829 4.007336 0 0 0
1183 815 8 -9.30523 4.615561 4.507493 0 0 0
1184 816 8 -1.417818 -1.44118 -3.012587 0 0 0
1185 817 8 -8.0847 -5.388158 -3.943567 0 0 0
1186 818 8 -7.362192 5.330256 2.397271 0 0 0
1187 819 8 -0.168651 4.965258 -0.432898 0 0 0
1188 820 8 -5.579732 -0.446325 4.556156 0 0 0
1189 821 8 -2.867044 2.45509 -0.098862 0 0 0
1190 822 8 -6.502436 6.50754 -1.570629 0 0 0
1191 823 8 -6.862599 3.19175 2.298191 0 0 0
1192 824 8 -1.803323 3.718351 2.140857 0 0 0
1193 825 8 -10.008762 2.416542 1.962217 0 0 0
1194 826 8 -9.865189 -7.388806 -4.287856 0 0 0
1195 827 8 -4.920423 1.089749 4.039884 0 0 0
1196 828 8 -10.328265 -2.61479 -3.375744 0 0 0
1197 829 8 -10.453568 -2.40407 -2.701397 0 0 0
1198 830 8 -8.535256 4.581875 -2.123598 0 0 0
1199 831 8 -8.802581 -6.223875 -0.690004 0 0 0
1200 832 8 -7.469285 -1.36962 2.773038 0 0 0
1201 833 8 -5.794122 -5.776782 -4.073897 0 0 0
1202 834 8 -10.280451 -5.455267 -0.977415 0 0 0
1203 835 8 -6.110617 -4.105019 1.22014 0 0 0
1204 836 8 -5.434036 4.517586 2.326413 0 0 0
1205 837 8 -2.21635 -5.502097 4.895579 0 0 0
1206 838 8 -2.805509 1.872097 -4.534573 0 0 0
1207 839 8 -7.246846 2.046487 4.168911 0 0 0
1208 840 8 -10.742561 -2.113123 -0.94166 0 0 0
1209 841 8 -4.752569 0.782353 0.453843 0 0 0
1210 842 8 -7.491597 3.441334 -2.428614 0 0 0
1211 843 8 -7.39175 2.893791 3.610609 0 0 0
1212 844 8 -2.75101 -0.817899 3.994475 0 0 0
1213 845 8 -5.199405 -6.21388 0.098624 0 0 0
1214 846 8 -0.558151 7.483868 0.087293 0 0 0
1215 847 8 -9.774146 -5.236157 0.189609 0 0 0
1216 848 8 -6.654414 -0.697559 3.010014 0 0 0
1217 849 8 -1.562384 2.651731 4.209688 0 0 0
1218 850 8 -4.945737 5.383859 -2.23953 0 0 0
1219 851 8 -6.052978 2.293348 -3.682746 0 0 0
1220 852 8 -8.259258 -1.870014 -0.481571 0 0 0
1221 853 8 -3.7484 -2.444068 0.183888 0 0 0
1222 854 8 -4.036161 -2.994484 -2.021854 0 0 0
1223 855 8 -0.837989 4.356637 -0.231621 0 0 0
1224 856 8 -6.591511 4.442079 3.912691 0 0 0
1225 857 8 -4.662704 5.536355 -0.72528 0 0 0
1226 858 8 -6.454323 2.39286 3.310344 0 0 0
1227 859 8 -7.227833 4.98855 2.054756 0 0 0
1228 860 8 -7.995037 -0.406717 3.739106 0 0 0
1229 861 8 -10.770878 4.526387 0.959956 0 0 0
1230 862 8 -0.244039 -2.998408 -4.039097 0 0 0
1231 863 8 -3.238287 -6.305698 0.972215 0 0 0
1232 864 8 -1.7105 -5.793294 3.075676 0 0 0
1233 865 8 -2.341404 -3.813418 4.523301 0 0 0
1234 866 8 -6.353494 7.042511 -3.535493 0 0 0
1235 867 8 -4.613482 -3.170792 4.437097 0 0 0
1236 868 8 -2.656301 -7.478902 -4.489044 0 0 0
1237 869 8 -7.592475 -5.305876 -1.751376 0 0 0
1238 870 8 -3.170301 5.300275 -3.417414 0 0 0
1239 871 8 -9.633726 6.101132 3.056506 0 0 0
1240 872 8 -5.455108 -5.171971 -2.780272 0 0 0
1241 873 8 -9.767139 1.178341 -3.283149 0 0 0
1242 874 8 -4.624195 3.81989 -1.76092 0 0 0
1243 875 8 -3.437229 -1.026593 -2.003772 0 0 0
1244 876 8 -8.234946 4.241429 -3.99699 0 0 0
1245 877 8 -3.251055 0.199921 2.023094 0 0 0
1246 878 8 -10.029174 -2.014544 4.939818 0 0 0
1247 879 8 -7.753091 -0.553118 -4.490916 0 0 0
1248 880 8 -6.7045 0.877267 0.624122 0 0 0
1249 881 8 -6.20181 -3.748314 3.73379 0 0 0
1250 882 8 -0.105603 -4.401015 -1.221752 0 0 0
1251 883 8 -0.734605 2.992259 0.495374 0 0 0
1252 884 8 -0.736696 3.140598 3.105856 0 0 0
1253 885 8 -0.192067 4.825979 2.118828 0 0 0
1254 886 8 -10.315125 1.880603 0.492161 0 0 0
1255 887 8 -4.162191 2.223721 -1.595077 0 0 0
1256 888 8 -8.989681 4.033685 -3.113284 0 0 0
1257 889 8 -3.191444 4.070748 -3.099366 0 0 0
1258 890 8 -0.059157 3.175514 3.326621 0 0 0
1259 891 8 -10.256005 4.652586 1.15517 0 0 0
1260 892 8 -2.950558 4.225086 -0.468201 0 0 0
1261 893 8 -9.289141 6.92678 0.902557 0 0 0
1262 894 8 -2.479781 -0.152973 -4.416908 0 0 0
1263 895 8 -4.830754 4.052143 -2.513456 0 0 0
1264 896 8 -3.488479 -5.805791 -4.873736 0 0 0
1265 897 8 -7.402683 4.807133 -3.811875 0 0 0
1266 898 8 -10.500455 3.052008 3.587687 0 0 0
1267 899 8 -0.928289 -3.574487 4.975537 0 0 0
1268 900 8 -10.388599 -5.813457 0.062292 0 0 0
1269 901 8 -0.281374 -6.450609 3.266018 0 0 0
1270 902 8 -4.51655 1.023593 -2.34272 0 0 0
1271 903 8 -2.521256 5.681898 -2.403124 0 0 0
1272 904 8 -2.676757 -3.669603 -3.076591 0 0 0
1273 905 8 -4.372733 -1.71394 -2.010932 0 0 0
1274 906 8 -6.626319 -5.686656 -0.276528 0 0 0
1275 907 8 -9.020315 -7.119475 0.891347 0 0 0
1276 908 8 -1.191074 1.11505 -4.610249 0 0 0
1277 909 8 -6.887847 3.433962 2.237697 0 0 0
1278 910 8 -8.988501 0.246913 -4.269172 0 0 0
1279 911 8 -5.30251 -6.755453 0.510277 0 0 0
1280 912 8 -0.020969 -1.960065 -3.79749 0 0 0
1281 913 8 -6.872379 5.766161 0.037665 0 0 0
1282 914 8 -4.59656 3.267937 -3.41881 0 0 0
1283 915 8 -7.870592 1.347164 1.815485 0 0 0
1284 916 8 -7.055548 5.350643 0.180008 0 0 0
1285 917 8 -3.140826 4.187088 -1.493455 0 0 0
1286 918 8 -8.961303 7.178081 3.456859 0 0 0
1287 919 8 -4.715352 -0.101694 1.992395 0 0 0
1288 920 8 -7.045588 -7.161613 -2.168883 0 0 0
1289 921 8 -2.012699 3.283561 4.91066 0 0 0
1290 922 8 -1.532994 -7.402116 2.333329 0 0 0

Velocities

1 0 0 0
2 0 0 0
3 0 0 0
4 0 0 0
5 0 0 0
6 0 0 0
7 0 0 0
8 0 0 0
9 0 0 0
10 0 0 0
11 0 0 0
12 0 0 0
13 0 0 0
14 0 0 0
15 0 0 0
16 0 0 0
17 0 0 0
18 0 0 0
19 0 0 0
20 0 0 0
21 0 0 0
22 0 0 0
23 0 0 0
24 0 0 0
25 0 0 0
26 0 0 0
27 0 0 0
28 0 0 0
29 0 0 0
30 0 0 0
31 0 0 0
32 0 0 0
33 0 0 0
34 0 0 0
35 0 0 0
36 0 0 0
37 0 0 0
38 0 0 0
39 0 0 0
40 0 0 0
41 0 0 0
42 0 0 0
43 0 0 0
44 0 0 0
45 0 0 0
46 0 0 0
47 0 0 0
48 0 0 0
49 0 0 0
50 0 0 0
51 0 0 0
52 0 0 0
53 0 0 0
54 0 0 0
55 0 0 0
56 0 0 0
57 0 0 0
58 0 0 0
59 0 0 0
60 0 0 0
61 0 0 0
62 0 0 0
63 0 0 0
64 0 0 0
65 0 0 0
66 0 0 0
67 0 0 0
68 0 0 0
69 0 0 0
70 0 0 0
71 0 0 0
72 0 0 0
73 0 0 0
74 0 0 0
75 0 0 0
76 0 0 0
77 0 0 0
78 0 0 0
79 0 0 0
80 0 0 0
81 0 0 0
82 0 0 0
83 0 0 0
84 0 0 0
85 0 0 0
86 0 0 0
87 0 0 0
88 0 0 0
89 0 0 0
90 0 0 0
91 0 0 0
92 0 0 0
93 0 0 0
94 0 0 0
95 0 0 0
96 0 0 0
97 0 0 0
98 0 0 0
99 0 0 0
100 0 0 0
101 0 0 0
102 0 0 0
103 0 0 0
104 0 0 0
105 0 0 0
106 0 0 0
107 0 0 0
108 0 0 0
109 0 0 0
110 0 0 0
111 0 0 0
112 0 0 0
113 0 0 0
114 0 0 0
115 0 0 0
116 0 0 0
117 0 0 0
118 0 0 0
119 0 0 0
120 0 0 0
121 0 0 0
122 0 0 0
123 0 0 0
124 0 0 0
125 0 0 0
126 0 0 0
127 0 0 0
128 0 0 0
129 0 0 0
130 0 0 0
131 0 0 0
132 0 0 0
133 0 0 0
134 0 0 0
135 0 0 0
136 0 0 0
137 0 0 0
138 0 0 0
139 0 0 0
140 0 0 0
141 0 0 0
142 0 0 0
143 0 0 0
144 0 0 0
145 0 0 0
146 0 0 0
147 0 0 0
148 0 0 0
149 0 0 0
150 0 0 0
151 0 0 0
152 0 0 0
153 0 0 0
154 0 0 0
155 0 0 0
156 0 0 0
157 0 0 0
158 0 0 0
159 0 0 0
160 0 0 0
161 0 0 0
162 0 0 0
163 0 0 0
164 0 0 0
165 0 0 0
166 0 0 0
167 0 0 0
168 0 0 0
169 0 0 0
170 0 0 0
171 0 0 0
172 0 0 0
173 0 0 0
174 0 0 0
175 0 0 0
176 0 0 0
177 0 0 0
178 0 0 0
179 0 0 0
180 0 0 0
181 0 0 0
182 0 0 0
183 0 0 0
184 0 0 0
185 0 0 0
186 0 0 0
187 0 0 0
188 0 0 0
189 0 0 0
190 0 0 0
191 0 0 0
192 0 0 0
193 0 0 0
194 0 0 0
195 0 0 0
196 0 0 0
197 0 0 0
198 0 0 0
199 0 0 0
200 0 0 0
201 0 0 0
202 0 0 0
203 0 0 0
204 0 0 0
205 0 0 0
206 0 0 0
207 0 0 0
208 0 0 0
209 0 0 0
210 0 0 0
211 0 0 0
212 0 0 0
213 0 0 0
214 0 0 0
215 0 0 0
216 0 0 0
217 0 0 0
218 0 0 0
219 0 0 0
220 0 0 0
221 0 0 0
222 0 0 0
223 0 0 0
224 0 0 0
225 0 0 0
226 0 0 0
227 0 0 0
228 0 0 0
229 0 0 0
230 0 0 0
231 0 0 0
232 0 0 0
233 0 0 0
234 0 0 0
235 0 0 0
236 0 0 0
237 0 0 0
238 0 0 0
239 0 0 0
240 0 0 0
241 0 0 0
242 0 0 0
243 0 0 0
244 0 0 0
245 0 0 0
246 0 0 0
247 0 0 0
248 0 0 0
249 0 0 0
250 0 0 0
251 0 0 0
252 0 0 0
253 0 0 0
254 0 0 0
255 0 0 0
256 0 0 0
257 0 0 0
258 0 0 0
259 0 0 0
260 0 0 0
261 0 0 0
262 0 0 0
263 0 0 0
264 0 0 0
265 0 0 0
266 0 0 0
267 0 0 0
268 0 0 0
269 0 0 0
270 0 0 0
271 0 0 0
272 0 0 0
273 0 0 0
274 0 0 0
275 0 0 0
276 0 0 0
277 0 0 0
278 0 0 0
279 0 0 0
280 0 0 0
281 0 0 0
282 0 0 0
283 0 0 0
284 0 0 0
285 0 0 0
286 0 0 0
287 0 0 0
288 0 0 0
289 0 0 0
290 0 0 0
291 0 0 0
292 0 0 0
293 0 0 0
294 0 0 0
295 0 0 0
296 0 0 0
297 0 0 0
298 0 0 0
299 0 0 0
300 0 0 0
301 0 0 0
302 0 0 0
303 0 0 0
304 0 0 0
305 0 0 0
306 0 0 0
307 0 0 0
308 0 0 0
309 0 0 0
310 0 0 0
311 0 0 0
312 0 0 0
313 0 0 0
314 0 0 0
315 0 0 0
316 0 0 0
317 0 0 0
318 0 0 0
319 0 0 0
320 0 0 0
321 0 0 0
322 0 0 0
323 0 0 0
324 0 0 0
325 0 0 0
326 0 0 0
327 0 0 0
328 0 0 0
329 0 0 0
330 0 0 0
331 0 0 0
332 0 0 0
333 0 0 0
334 0 0 0
335 0 0 0
336 0 0 0
337 0 0 0
338 0 0 0
339 0 0 0
340 0 0 0
341 0 0 0
342 0 0 0
343 0 0 0
344 0 0 0
345 0 0 0
346 0 0 0
347 0 0 0
348 0 0 0
349 0 0 0
350 0 0 0
351 0 0 0
352 0 0 0
353 0 0 0
354 0 0 0
355 0 0 0
356 0 0 0
357 0 0 0
358 0 0 0
359 0 0 0
360 0 0 0
361 0 0 0
362 0 0 0
363 0 0 0
364 0 0 0
365 0 0 0
366 0 0 0
367 0 0 0
368 0 0 0
369 0 0 0
370 0 0 0
371 0 0 0
372 0 0 0
373 0 0 0
374 0 0 0
375 0 0 0
376 0 0 0
377 0 0 0
378 0 0 0
379 0 0 0
380 0 0 0
381 0 0 0
382 0 0 0
383 0 0 0
384 0 0 0
385 0 0 0
386 0 0 0
387 0 0 0
388 0 0 0
389 0 0 0
390 0 0 0
391 0 0 0
392 0 0 0
393 0 0 0
394 0 0 0
395 0 0 0
396 0 0 0
397 0 0 0
398 0 0 0
399 0 0 0
400 0 0 0
401 0 0 0
402 0 0 0
403 0 0 0
404 0 0 0
405 0 0 0
406 0 0 0
407 0 0 0
408 0 0 0
409 0 0 0
410 0 0 0
411 0 0 0
412 0 0 0
413 0 0 0
414 0 0 0
415 0 0 0
416 0 0 0
417 0 0 0
418 0 0 0
419 0 0 0
420 0 0 0
421 0 0 0
422 0 0 0
423 0 0 0
424 0 0 0
425 0 0 0
426 0 0 0
427 0 0 0
428 0 0 0
429 0 0 0
430 0 0 0
431 0 0 0
432 0 0 0
433 0 0 0
434 0 0 0
435 0 0 0
436 0 0 0
437 0 0 0
438 0 0 0
439 0 0 0
440 0 0 0
441 0 0 0
442 0 0 0
443 0 0 0
444 0 0 0
445 0 0 0
446 0 0 0
447 0 0 0
448 0 0 0
449 0 0 0
450 0 0 0
451 0 0 0
452 0 0 0
453 0 0 0
454 0 0 0
455 0 0 0
456 0 0 0
457 0 0 0
458 0 0 0
459 0 0 0
460 0 0 0
461 0 0 0
462 0 0 0
463 0 0 0
464 0 0 0
465 0 0 0
466 0 0 0
467 0 0 0
468 0 0 0
469 0 0 0
470 0 0 0
471 0 0 0
472 0 0 0
473 0 0 0
474 0 0 0
475 0 0 0
476 0 0 0
477 0 0 0
478 0 0 0
479 0 0 0
480 0 0 0
481 0 0 0
482 0 0 0
483 0 0 0
484 0 0 0
485 0 0 0
486 0 0 0
487 0 0 0
488 0 0 0
489 0 0 0
490 0 0 0
491 0 0 0
492 0 0 0
493 0 0 0
494 0 0 0
495 0 0 0
496 0 0 0
497 0 0 0
498 0 0 0
499 0 0 0
500 0 0 0
501 0 0 0
502 0 0 0
503 0 0 0
504 0 0 0
505 0 0 0
506 0 0 0
507 0 0 0
508 0 0 0
509 0 0 0
510 0 0 0
511 0 0 0
512 0 0 0
513 0 0 0
514 0 0 0
515 0 0 0
516 0 0 0
517 0 0 0
518 0 0 0
519 0 0 0
520 0 0 0
521 0 0 0
522 0 0 0
523 0 0 0
524 0 0 0
525 0 0 0
526 0 0 0
527 0 0 0
528 0 0 0
529 0 0 0
530 0 0 0
531 0 0 0
532 0 0 0
533 0 0 0
534 0 0 0
535 0 0 0
536 0 0 0
537 0 0 0
538 0 0 0
539 0 0 0
540 0 0 0
541 0 0 0
542 0 0 0
543 0 0 0
544 0 0 0
545 0 0 0
546 0 0 0
547 0 0 0
548 0 0 0
549 0 0 0
550 0 0 0
551 0 0 0
552 0 0 0
553 0 0 0
554 0 0 0
555 0 0 0
556 0 0 0
557 0 0 0
558 0 0 0
559 0 0 0
560 0 0 0
561 0 0 0
562 0 0 0
563 0 0 0
564 0 0 0
565 0 0 0
566 0 0 0
567 0 0 0
568 0 0 0
569 0 0 0
570 0 0 0
571 0 0 0
572 0 0 0
573 0 0 0
574 0 0 0
575 0 0 0
576 0 0 0
577 0 0 0
578 0 0 0
579 0 0 0
580 0 0 0
581 0 0 0
582 0 0 0
583 0 0 0
584 0 0 0
585 0 0 0
586 0 0 0
587 0 0 0
588 0 0 0
589 0 0 0
590 0 0 0
591 0 0 0
592 0 0 0
593 0 0 0
594 0 0 0
595 0 0 0
596 0 0 0
597 0 0 0
598 0 0 0
599 0 0 0
600 0 0 0
601 0 0 0
602 0 0 0
603 0 0 0
604 0 0 0
605 0 0 0
606 0 0 0
607 0 0 0
608 0 0 0
609 0 0 0
610 0 0 0
611 0 0 0
612 0 0 0
613 0 0 0
614 0 0 0
615 0 0 0
616 0 0 0
617 0 0 0
618 0 0 0
619 0 0 0
620 0 0 0
621 0 0 0
622 0 0 0
623 0 0 0
624 0 0 0
625 0 0 0
626 0 0 0
627 0 0 0
628 0 0 0
629 0 0 0
630 0 0 0
631 0 0 0
632 0 0 0
633 0 0 0
634 0 0 0
635 0 0 0
636 0 0 0
637 0 0 0
638 0 0 0
639 0 0 0
640 0 0 0
641 0 0 0
642 0 0 0
643 0 0 0
644 0 0 0
645 0 0 0
646 0 0 0
647 0 0 0
648 0 0 0
649 0 0 0
650 0 0 0
651 0 0 0
652 0 0 0
653 0 0 0
654 0 0 0
655 0 0 0
656 0 0 0
657 0 0 0
658 0 0 0
659 0 0 0
660 0 0 0
661 0 0 0
662 0 0 0
663 0 0 0
664 0 0 0
665 0 0 0
666 0 0 0
667 0 0 0
668 0 0 0
669 0 0 0
670 0 0 0
671 0 0 0
672 0 0 0
673 0 0 0
674 0 0 0
675 0 0 0
676 0 0 0
677 0 0 0
678 0 0 0
679 0 0 0
680 0 0 0
681 0 0 0
682 0 0 0
683 0 0 0
684 0 0 0
685 0 0 0
686 0 0 0
687 0 0 0
688 0 0 0
689 0 0 0
690 0 0 0
691 0 0 0
692 0 0 0
693 0 0 0
694 0 0 0
695 0 0 0
696 0 0 0
697 0 0 0
698 0 0 0
699 0 0 0
700 0 0 0
701 0 0 0
702 0 0 0
703 0 0 0
704 0 0 0
705 0 0 0
706 0 0 0
707 0 0 0
708 0 0 0
709 0 0 0
710 0 0 0
711 0 0 0
712 0 0 0
713 0 0 0
714 0 0 0
715 0 0 0
716 0 0 0
717 0 0 0
718 0 0 0
719 0 0 0
720 0 0 0
721 0 0 0
722 0 0 0
723 0 0 0
724 0 0 0
725 0 0 0
726 0 0 0
727 0 0 0
728 0 0 0
729 0 0 0
730 0 0 0
731 0 0 0
732 0 0 0
733 0 0 0
734 0 0 0
735 0 0 0
736 0 0 0
737 0 0 0
738 0 0 0
739 0 0 0
740 0 0 0
741 0 0 0
742 0 0 0
743 0 0 0
744 0 0 0
745 0 0 0
746 0 0 0
747 0 0 0
748 0 0 0
749 0 0 0
750 0 0 0
751 0 0 0
752 0 0 0
753 0 0 0
754 0 0 0
755 0 0 0
756 0 0 0
757 0 0 0
758 0 0 0
759 0 0 0
760 0 0 0
761 0 0 0
762 0 0 0
763 0 0 0
764 0 0 0
765 0 0 0
766 0 0 0
767 0 0 0
768 0 0 0
769 0 0 0
770 0 0 0
771 0 0 0
772 0 0 0
773 0 0 0
774 0 0 0
775 0 0 0
776 0 0 0
777 0 0 0
778 0 0 0
779 0 0 0
780 0 0 0
781 0 0 0
782 0 0 0
783 0 0 0
784 0 0 0
785 0 0 0
786 0 0 0
787 0 0 0
788 0 0 0
789 0 0 0
790 0 0 0
791 0 0 0
792 0 0 0
793 0 0 0
794 0 0 0
795 0 0 0
796 0 0 0
797 0 0 0
798 0 0 0
799 0 0 0
800 0 0 0
801 0 0 0
802 0 0 0
803 0 0 0
804 0 0 0
805 0 0 0
806 0 0 0
807 0 0 0
808 0 0 0
809 0 0 0
810 0 0 0
811 0 0 0
812 0 0 0
813 0 0 0
814 0 0 0
815 0 0 0
816 0 0 0
817 0 0 0
818 0 0 0
819 0 0 0
820 0 0 0
821 0 0 0
822 0 0 0
823 0 0 0
824 0 0 0
825 0 0 0
826 0 0 0
827 0 0 0
828 0 0 0
829 0 0 0
830 0 0 0
831 0 0 0
832 0 0 0
833 0 0 0
834 0 0 0
835 0 0 0
836 0 0 0
837 0 0 0
838 0 0 0
839 0 0 0
840 0 0 0
841 0 0 0
842 0 0 0
843 0 0 0
844 0 0 0
845 0 0 0
846 0 0 0
847 0 0 0
848 0 0 0
849 0 0 0
850 0 0 0
851 0 0 0
852 0 0 0
853 0 0 0
854 0 0 0
855 0 0 0
856 0 0 0
857 0 0 0
858 0 0 0
859 0 0 0
860 0 0 0
861 0 0 0
862 0 0 0
863 0 0 0
864 0 0 0
865 0 0 0
866 0 0 0
867 0 0 0
868 0 0 0
869 0 0 0
870 0 0 0
871 0 0 0
872 0 0 0
873 0 0 0
874 0 0 0
875 0 0 0
876 0 0 0
877 0 0 0
878 0 0 0
879 0 0 0
880 0 0 0
881 0 0 0
882 0 0 0
883 0 0 0
884 0 0 0
885 0 0 0
886 0 0 0
887 0 0 0
888 0 0 0
889 0 0 0
890 0 0 0
891 0 0 0
892 0 0 0
893 0 0 0
894 0 0 0
895 0 0 0
896 0 0 0
897 0 0 0
898 0 0 0
899 0 0 0
900 0 0 0
901 0 0 0
902 0 0 0
903 0 0 0
904 0 0 0
905 0 0 0
906 0 0 0
907 0 0 0
908 0 0 0
909 0 0 0
910 0 0 0
911 0 0 0
912 0 0 0
913 0 0 0
914 0 0 0
915 0 0 0
916 0 0 0
917 0 0 0
918 0 0 0
919 0 0 0
920 0 0 0
921 0 0 0
922 0 0 0
923 0 0 0
924 0 0 0
925 0 0 0
926 0 0 0
927 0 0 0
928 0 0 0
929 0 0 0
930 0 0 0
931 0 0 0
932 0 0 0
933 0 0 0
934 0 0 0
935 0 0 0
936 0 0 0
937 0 0 0
938 0 0 0
939 0 0 0
940 0 0 0
941 0 0 0
942 0 0 0
943 0 0 0
944 0 0 0
945 0 0 0
946 0 0 0
947 0 0 0
948 0 0 0
949 0 0 0
950 0 0 0
951 0 0 0
952 0 0 0
953 0 0 0
954 0 0 0
955 0 0 0
956 0 0 0
957 0 0 0
958 0 0 0
959 0 0 0
960 0 0 0
961 0 0 0
962 0 0 0
963 0 0 0
964 0 0 0
965 0 0 0
966 0 0 0
967 0 0 0
968 0 0 0
969 0 0 0
970 0 0 0
971 0 0 0
972 0 0 0
973 0 0 0
974 0 0 0
975 0 0 0
976 0 0 0
977 0 0 0
978 0 0 0
979 0 0 0
980 0 0 0
981 0 0 0
982 0 0 0
983 0 0 0
984 0 0 0
985 0 0 0
986 0 0 0
987 0 0 0
988 0 0 0
989 0 0 0
990 0 0 0
991 0 0 0
992 0 0 0
993 0 0 0
994 0 0 0
995 0 0 0
996 0 0 0
997 0 0 0
998 0 0 0
999 0 0 0
1000 0 0 0
1001 0 0 0
1002 0 0 0
1003 0 0 0
1004 0 0 0
1005 0 0 0
1006 0 0 0
1007 0 0 0
1008 0 0 0
1009 0 0 0
1010 0 0 0
1011 0 0 0
1012 0 0 0
1013 0 0 0
1014 0 0 0
1015 0 0 0
1016 0 0 0
1017 0 0 0
1018 0 0 0
1019 0 0 0
1020 0 0 0
1021 0 0 0
1022 0 0 0
1023 0 0 0
1024 0 0 0
1025 0 0 0
1026 0 0 0
1027 0 0 0
1028 0 0 0
1029 0 0 0
1030 0 0 0
1031 0 0 0
1032 0 0 0
1033 0 0 0
1034 0 0 0
1035 0 0 0
1036 0 0 0
1037 0 0 0
1038 0 0 0
1039 0 0 0
1040 0 0 0
1041 0 0 0
1042 0 0 0
1043 0 0 0
1044 0 0 0
1045 0 0 0
1046 0 0 0
1047 0 0 0
1048 0 0 0
1049 0 0 0
1050 0 0 0
1051 0 0 0
1052 0 0 0
1053 0 0 0
1054 0 0 0
1055 0 0 0
1056 0 0 0
1057 0 0 0
1058 0 0 0
1059 0 0 0
1060 0 0 0
1061 0 0 0
1062 0 0 0
1063 0 0 0
1064 0 0 0
1065 0 0 0
1066 0 0 0
1067 0 0 0
1068 0 0 0
1069 0 0 0
1070 0 0 0
1071 0 0 0
1072 0 0 0
1073 0 0 0
1074 0 0 0
1075 0 0 0
1076 0 0 0
1077 0 0 0
1078 0 0 0
1079 0 0 0
1080 0 0 0
1081 0 0 0
1082 0 0 0
1083 0 0 0
1084 0 0 0
1085 0 0 0
1086 0 0 0
1087 0 0 0
1088 0 0 0
1089 0 0 0
1090 0 0 0
1091 0 0 0
1092 0 0 0
1093 0 0 0
1094 0 0 0
1095 0 0 0
1096 0 0 0
1097 0 0 0
1098 0 0 0
1099 0 0 0
1100 0 0 0
1101 0 0 0
1102 0 0 0
1103 0 0 0
1104 0 0 0
1105 0 0 0
1106 0 0 0
1107 0 0 0
1108 0 0 0
1109 0 0 0
1110 0 0 0
1111 0 0 0
1112 0 0 0
1113 0 0 0
1114 0 0 0
1115 0 0 0
1116 0 0 0
1117 0 0 0
1118 0 0 0
1119 0 0 0
1120 0 0 0
1121 0 0 0
1122 0 0 0
1123 0 0 0
1124 0 0 0
1125 0 0 0
1126 0 0 0
1127 0 0 0
1128 0 0 0
1129 0 0 0
1130 0 0 0
1131 0 0 0
1132 0 0 0
1133 0 0 0
1134 0 0 0
1135 0 0 0
1136 0 0 0
1137 0 0 0
1138 0 0 0
1139 0 0 0
1140 0 0 0
1141 0 0 0
1142 0 0 0
1143 0 0 0
1144 0 0 0
1145 0 0 0
1146 0 0 0
1147 0 0 0
1148 0 0 0
1149 0 0 0
1150 0 0 0
1151 0 0 0
1152 0 0 0
1153 0 0 0
1154 0 0 0
1155 0 0 0
1156 0 0 0
1157 0 0 0
1158 0 0 0
1159 0 0 0
1160 0 0 0
1161 0 0 0
1162 0 0 0
1163 0 0 0
1164 0 0 0
1165 0 0 0
1166 0 0 0
1167 0 0 0
1168 0 0 0
1169 0 0 0
1170 0 0 0
1171 0 0 0
1172 0 0 0
1173 0 0 0
1174 0 0 0
1175 0 0 0
1176 0 0 0
1177 0 0 0
1178 0 0 0
1179 0 0 0
1180 0 0 0
1181 0 0 0
1182 0 0 0
1183 0 0 0
1184 0 0 0
1185 0 0 0
1186 0 0 0
1187 0 0 0
1188 0 0 0
1189 0 0 0
1190 0 0 0
1191 0 0 0
1192 0 0 0
1193 0 0 0
1194 0 0 0
1195 0 0 0
1196 0 0 0
1197 0 0 0
1198 0 0 0
1199 0 0 0
1200 0 0 0
1201 0 0 0
1202 0 0 0
1203 0 0 0
1204 0 0 0
1205 0 0 0
1206 0 0 0
1207 0 0 0
1208 0 0 0
1209 0 0 0
1210 0 0 0
1211 0 0 0
1212 0 0 0
1213 0 0 0
1214 0 0 0
1215 0 0 0
1216 0 0 0
1217 0 0 0
1218 0 0 0
1219 0 0 0
1220 0 0 0
1221 0 0 0
1222 0 0 0
1223 0 0 0
1224 0 0 0
1225 0 0 0
1226 0 0 0
1227 0 0 0
1228 0 0 0
1229 0 0 0
1230 0 0 0
1231 0 0 0
1232 0 0 0
1233 0 0 0
1234 0 0 0
1235 0 0 0
1236 0 0 0
1237 0 0 0
1238 0 0 0
1239 0 0 0
1240 0 0 0
1241 0 0 0
1242 0 0 0
1243 0 0 0
1244 0 0 0
1245 0 0 0
1246 0 0 0
1247 0 0 0
1248 0 0 0
1249 0 0 0
1250 0 0 0
1251 0 0 0
1252 0 0 0
1253 0 0 0
1254 0 0 0
1255 0 0 0
1256 0 0 0
1257 0 0 0
1258 0 0 0
1259 0 0 0
1260 0 0 0
1261 0 0 0
1262 0 0 0
1263 0 0 0
1264 0 0 0
1265 0 0 0
1266 0 0 0
1267 0 0 0
1268 0 0 0
1269 0 0 0
1270 0 0 0
1271 0 0 0
1272 0 0 0
1273 0 0 0
1274 0 0 0
1275 0 0 0
1276 0 0 0
1277 0 0 0
1278 0 0 0
1279 0 0 0
1280 0 0 0
1281 0 0 0
1282 0 0 0
1283 0 0 0
1284 0 0 0
1285 0 0 0
1286 0 0 0
1287 0 0 0
1288 0 0 0
1289 0 0 0
1290 0 0 0

Bonds

1 1 1 2
2 1 2 3
3 1 3 4
4 1 4 5
5 1 5 6
6 1 6 7
7 1 7 8
8 1 8 9
9 1 9 10
10 1 10 11
11 1 11 12
12 1 12 13
13 1 13 14
14 1 14 15
15 1 15 16
16 1 16 17
17 1 17 18
18 1 18 19
19 1 19 20
20 1 20 21
21 1 21 22
22 1 22 23
23 1 23 24
24 1 24 25
25 1 25 26
26 1 26 27
27 1 27 28
28 1 28 29
29 1 29 30
30 1 30 31
31 1 31 32
32 1 32 33
33 1 33 34
34 1 34 35
35 1 35 36
36 1 36 37
37 1 37 38
38 1 38 39
39 1 39 40
40 1 40 41
41 1 41 42
42 1 42 43
43 1 43 44
44 1 44 45
45 1 45 46
46 1 46 47
47 1 47 48
48 1 48 49
49 1 49 50
50 1 50 51
51 1 51 52
52 1 52 53
53 1 53 54
54 1 54 55
55 1 55 56
56 1 56 57
57 1 57 58
58 1 58 59
59 1 59 60
60 1 60 61
61 1 61 62
62 1 62 63
63 1 63 64
64 1 64 65
65 1 65 66
66 1 66 67
67 1 67 68
68 1 68 69
69 1 69 70
70 1 70 71
71 1 71 72
72 1 72 73
73 1 73 74
74 1 74 75
75 1 75 76
76 1 76 77
77 1 77 78
78 1 78 79
79 1 79 80
80 1 80 81
81 1 81 82
82 1 82 83
83 1 83 84
84 1 84 85
85 1 85 86
86 1 86 87
87 1 87 88
88 1 88 89
89 1 89 90
90 1 90 91
91 1 91 92
92 1 92 93
93 1 93 94
94 1 94 95
95 1 95 96
96 1 96 97
97 1 97 98
98 1 98 99
99 1 99 100
100 1 100 101
101 1 101 102
102 1 102 103
103 1 103 104
104 1 104 105
105 1 105 106
106 1 106 107
107 1 107 108
108 1 108 109
109 1 109 110
110 1 110 111
111 1 111 112
112 1 112 113
113 1 113 114
114 1 114 115
115 1 115 116
116 1 116 117
117 1 117 118
118 1 118 119
119 1 119 120
120 1 120 121
121 1 121 122
122 1 122 123
123 1 124 125
124 1 125 126
125 1 126 127
126 1 127 128
127 1 128 129
128 1 129 130
129 1 130 131
130 1 131 132
131 1 132 133
132 1 133 134
133 1 134 135
134 1 135 136
135 1 136 137
136 1 137 138
137 1 138 139
138 1 139 140
139 1 140 141
140 1 141 142
141 1 142 143
142 1 143 144
143 1 144 145
144 1 145 146
145 1 146 147
146 1 147 148
147 1 148 149
148 1 149 150
149 1 150 151
150 1 151 152
151 1 152 153
152 1 153 154
153 1 154 155
154 1 155 156
155 1 156 157
156 1 157 158
157 1 158 159
158 1 159 160
159 1 160 161
160 1 161 162
161 1 162 163
162 1 163 164
163 1 164 165
164 1 165 166
165 1 166 167
166 1 167 168
167 1 168 169
168 1 169 170
169 1 170 171
170 1 171 172
171 1 172 173
172 1 173 174
173 1 174 175
174 1 175 176
175 1 176 177
176 1 177 178
177 1 178 179
178 1 179 180
179 1 180 181
180 1 181 182
181 1 182 183
182 1 183 184
183 1 184 185
184 1 185 186
185 1 186 187
186 1 187 188
187 1 188 189
188 1 189 190
189 1 190 191
190 1 191 192
191 1 192 193
192 1 193 194
193 1 194 195
194 1 195 196
195 1 196 197
196 1 197 198
197 1 198 199
198 1 199 200
199 1 200 201
200 1 201 202
201 1 202 203
202 1 203 204
203 1 204 205
204 1 205 206
205 1 206 207
206 1 207 208
207 1 208 209
208 1 209 210
209 1 210 211
210 1 211 212
211 1 212 213
212 1 213 214
213 1 214 215
214 1 215 216
215 1 216 217
216 1 217 218
217 1 218 219
218 1 219 220
219 1 220 221
220 1 221 222
221 1 222 223
222 1 223 224
223 1 224 225
224 1 225 226
225 1 226 227
226 1 227 228
227 1 228 229
228 1 229 230
229 1 230 231
230 1 231 232
231 1 232 233
232 1 233 234
233 1 234 235
234 1 235 236
235 1 236 237
236 1 237 238
237 1 238 239
238 1 239 240
239 1 240 241
240 1 241 242
241 1 242 243
242 1 243 244
243 1 244 245
244 1 245 246
245 1 246 247
246 1 247 248
247 1 248 249
248 1 249 250
249 1 250 251
250 1 251 252
251 1 252 253
252 1 253 254
253 1 254 255
254 1 255 256
255 1 256 257
256 1 257 258
257 1 258 259
258 1 259 260
259 1 260 261
260 1 261 262
261 1 262 263
262 1 263 264
263 1 264 265
264 1 265 266
265 1 266 267
266 1 267 268
267 1 268 269
268 1 269 270
269 1 270 271
270 1 271 272
271 1 272 273
272 1 273 274
273 1 274 275
274 1 275 276
275 1 276 277
276 1 277 278
277 1 278 279
278 1 279 280
279 1 280 281
280 1 281 282
281 1 282 283
282 1 283 284
283 1 284 285
284 1 285 286
285 1 286 287
286 1 287 288
287 1 288 289
288 1 289 290
289 1 290 291
290 1 291 292
291 1 292 293
292 1 293 294
293 1 294 295
294 1 295 296
295 1 296 297
296 1 297 298
297 1 298 299
298 1 299 300
299 1 300 301
300 1 301 302
301 1 302 303
302 1 303 304
303 1 304 305
304 1 305 306
305 1 306 307
306 1 307 308
307 1 308 309
308 1 309 310
309 1 310 311
310 1 311 312
311 1 312 313
312 1 313 314
313 1 314 315
314 1 315 316
315 1 316 317
316 1 317 318
317 1 318 319
318 1 319 320
319 1 320 321
320 1 321 322
321 1 322 323
322 1 323 324
323 1 324 325
324 1 325 326
325 1 326 327
326 1 327 328
327 1 328 329
328 1 329 330
329 1 330 331
330 1 331 332
331 1 332 333
332 1 333 334
333 1 334 335
334 1 335 336
335 1 336 337
336 1 337 338
337 1 338 339
338 1 339 340
339 1 340 341
340 1 341 342
341 1 342 343
342 1 343 344
343 1 344 345
344 1 345 346
345 1 346 347
346 1 347 348
347 1 348 349
348 1 349 350
349 1 350 351
350 1 351 352
351 1 352 353
352 1 353 354
353 1 354 355
354 1 355 356
355 1 356 357
356 1 357 358
357 1 358 359
358 1 359 360
359 1 360 361
360 1 361 362
361 1 362 363
362 1 363 364
363 1 364 365
364 1 365 366
365 1 366 367
366 1 367 368
367 1 368 369
368 1 369 370

Angles

1 1 1 2 3
2 1 2 3 4
3 1 3 4 5
4 1 4 5 6
5 1 5 6 7
6 1 6 7 8
7 1 7 8 9
8 1 8 9 10
9 1 9 10 11
10 1 10 11 12
11 1 11 12 13
12 1 12 13 14
13 1 13 14 15
14 1 14 15 16
15 1 15 16 17
16 1 16 17 18
17 1 17 18 19
18 1 18 19 20
19 1 19 20 21
20 1 20 21 22
21 1 21 22 23
22 1 22 23 24
23 1 23 24 25
24 1 24 25 26
25 1 25 26 27
26 1 26 27 28
27 1 27 28 29
28 1 28 29 30
29 1 29 30 31
30 1 30 31 32
31 1 31 32 33
32 1 32 33 34
33 1 33 34 35
34 1 34 35 36
35 1 35 36 37
36 1 36 37 38
37 1 37 38 39
38 1 38 39 40
39 1 39 40 41
40 1 40 41 42
41 1 41 42 43
42 1 42 43 44
43 1 43 44 45
44 1 44 45 46
45 1 45 46 47
46 1 46 47 48
47 1 47 48 49
48 1 48 49 50
49 1 49 50 51
50 1 50 51 52
51 1 51 52 53
52 1 52 53 54
53 1 53 54 55
54 1 54 55 56
55 1 55 56 57
56 1 56 57 58
57 1 57 58 59
58 1 58 59 60
59 1 59 60 61
60 1 60 61 62
61 1 61 62 63
62 1 62 63 64
63 1 63 64 65
64 1 64 65 66
65 1 65 66 67
66 1 66 67 68
67 1 67 68 69
68 1 68 69 70
69 1 69 70 71
70 1 70 71 72
71 1 71 72 73
72 1 72 73 74
73 1 73 74 75
74 1 74 75 76
75 1 75 76 77
76 1 76 77 78
77 1 77 78 79
78 1 78 79 80
79 1 79 80 81
80 1 80 81 82
81 1 81 82 83
82 1 82 83 84
83 1 83 84 85
84 1 84 85 86
85 1 85 86 87
86 1 86 87 88
87 1 87 88 89
88 1 88 89 90
89 1 89 90 91
90 1 90 91 92
91 1 91 92 93
92 1 92 93 94
93 1 93 94 95
94 1 94 95 96
95 1 95 96 97
96 1 96 97 98
97 1 97 98 99
98 1 98 99 100
99 1 99 100 101
100 1 100 101 102
101 1 101 102 103
102 1 102 103 104
103 1 103 104 105
104 1 104 105 106
105 1 105 106 107
106 1 106 107 108
107 1 107 108 109
108 1 108 109 110
109 1 109 110 111
110 1 110 111 112
111 1 111 112 113
112 1 112 113 114
113 1 113 114 115
114 1 114 115 116
115 1 115 116 117
116 1 116 117 118
117 1 117 118 119
118 1 118 119 120
119 1 119 120 121
120 1 120 121 122
121 1 121 122 123
122 1 124 125 126
123 1 125 126 127
124 1 126 127 128
125 1 127 128 129
126 1 128 129 130
127 1 129 130 131
128 1 130 131 132
129 1 131 132 133
130 1 132 133 134
131 1 133 134 135
132 1 134 135 136
133 1 135 136 137
134 1 136 137 138
135 1 137 138 139
136 1 138 139 140
137 1 139 140 141
138 1 140 141 142
139 1 141 142 143
140 1 142 143 144
141 1 143 144 145
142 1 144 145 146
143 1 145 146 147
144 1 146 147 148
145 1 147 148 149
146 1 148 149 150
147 1 149 150 151
148 1 150 151 152
149 1 151 152 153
150 1 152 153 154
151 1 153 154 155
152 1 154 155 156
153 1 155 156 157
154 1 156 157 158
155 1 157 158 159
156 1 158 159 160
157 1 159 160 161
158 1 160 161 162
159 1 161 162 163
160 1 162 163 164
161 1 163 164 165
162 1 164 165 166
163 1 165 166 167
164 1 166 167 168
165 1 167 168 169
166 1 168 169 170
167 1 169 170 171
168 1 170 171 172
169 1 171 172 173
170 1 172 173 174
171 1 173 174 175
172 1 174 175 176
173 1 175 176 177
174 1 176 177 178
175 1 177 178 179
176 1 178 179 180
177 1 179 180 181
178 1 180 181 182
179 1 181 182 183
180 1 182 183 184
181 1 183 184 185
182 1 184 185 186
183 1 185 186 187
184 1 186 187 188
185 1 187 188 189
186 1 188 189 190
187 1 189 190 191
188 1 190 191 192
189 1 191 192 193
190 1 192 193 194
191 1 193 194 195
192 1 194 195 196
193 1 195 196 197
194 1 196 197 198
195 1 197 198 199
196 1 198 199 200
197 1 199 200 201
198 1 200 201 202
199 1 201 202 203
200 1 202 203 204
201 1 203 204 205
202 1 204 205 206
203 1 205 206 207
204 1 206 207 208
205 1 207 208 209
206 1 208 209 210
207 1 209 210 211
208 1 210 211 212
209 1 211 212 213
210 1 212 213 214
211 1 213 214 215
212 1 214 215 216
213 1 215 216 217
214 1 216 217 218
215 1 217 218 219
216 1 218 219 220
217 1 219 220 221
218 1 220 221 222
219 1 221 222 223
220 1 222 223 224
221 1 223 224 225
222 1 224 225 226
223 1 225 226 227
224 1 226 227 228
225 1 227 228 229
226 1 228 229 230
227 1 229 230 231
228 1 230 231 232
229 1 231 232 233
230 1 232 233 234
231 1 233 234 235
232 1 234 235 236
233 1 235 236 237
234 1 236 237 238
235 1 237 238 239
236 1 238 239 240
237 1 239 240 241
238 1 240 241 242
239 1 241 242 243
240 1 242 243 244
241 1 243 244 245
242 1 244 245 246
243 1 245 246 247
244 1 246 247 248
245 1 247 248 249
246 1 248 249 250
247 1 249 250 251
248 1 250 251 252
249 1 251 252 253
250 1 252 253 254
251 1 253 254 255
252 1 254 255 256
253 1 255 256 257
254 1 256 257 258
255 1 257 258 259
256 1 258 259 260
257 1 259 260 261
258 1 260 261 262
259 1 261 262 263
260 1 262 263 264
261 1 263 264 265
262 1 264 265 266
263 1 265 266 267
264 1 266 267 268
265 1 267 268 269
266 1 268 269 270
267 1 269 270 271
268 1 270 271 272
269 1 271 272 273
270 1 272 273 274
271 1 273 274 275
272 1 274 275 276
273 1 275 276 277
274 1 276 277 278
275 1 277 278 279
276 1 278 279 280
277 1 279 280 281
278 1 280 281 282
279 1 281 282 283
280 1 282 283 284
281 1 283 284 285
282 1 284 285 286
283 1 285 286 287
284 1 286 287 288
285 1 287 288 289
286 1 288 289 290
287 1 289 290 291
288 1 290 291 292
289 1 291 292 293
290 1 292 293 294
291 1 293 294 295
292 1 294 295 296
293 1 295 296 297
294 1 296 297 298
295 1 297 298 299
296 1 298 299 300
297 1 299 300 301
298 1 300 301 302
299 1 301 302 303
300 1 302 303 304
301 1 303 304 305
302 1 304 305 306
303 1 305 306 307
304 1 306 307 308
305 1 307 308 309
306 1 308 309 310
307 1 309 310 311
308 1 310 311 312
309 1 311 312 313
310 1 312 313 314
311 1 313 314 315
312 1 314 315 316
313 1 315 316 317
314 1 316 317 318
315 1 317 318 319
316 1 318 319 320
317 1 319 320 321
318 1 320 321 322
319 1 321 322 323
320 1 322 323 324
321 1 323 324 325
322 1 324 325 326
323 1 325 326 327
324 1 326 327 328
325 1 327 328 329
326 1 328 329 330
327 1 329 330 331
328 1 330 331 332
329 1 331 332 333
330 1 332 333 334
331 1 333 334 335
332 1 334 335 336
333 1 335 336 337
334 1 336 337 338
335 1 337 338 339
336 1 338 339 340
337 1 339 340 341
338 1 340 341 342
339 1 341 342 343
340 1 342 343 344
341 1 343 344 345
342 1 344 345 346
343 1 345 346 347
344 1 346 347 348
345 1 347 348 349
346 1 348 349 350
347 1 349 350 351
348 1 350 351 352
349 1 351 352 353
350 1 352 353 354
351 1 353 354 355
352 1 354 355 356
353 1 355 356 357
354 1 356 357 358
355 1 357 358 359
356 1 358 359 360
357 1 359 360 361
358 1 360 361 362
359 1 361 362 363
360 1 362 363 364
361 1 363 364 365
362 1 364 365 366
363 1 365 366 367
364 1 366 367 368
365 1 367 368 369
366 1 368 369 370
